91
R1TS8minorsCN.xyz  (col5 = NBO charge)
O       -2.41450000       1.29492000       3.88509000      -0.26660000
N       -1.37674000       1.19145000       3.16364000       0.23148000
C       -1.00524000      -0.07115000       2.74009000      -0.11033000
C        0.21771000      -0.26525000       2.06236000      -0.06510000
C        0.86478000      -1.60096000       2.08689000      -0.01966000
O       -1.91748000      -1.43957000      -0.02757000      -0.33662000
C       -0.73345000      -1.20768000      -0.33297000       0.41701000
C        0.00024000       0.00003000      -0.00256000      -0.21776000
C       -0.71290000       1.26105000      -0.02509000       0.41840000
O       -1.93755000       1.38297000       0.15423000      -0.33963000
Ni      -3.30301000      -0.07995000       0.71581000       1.35920000
O        0.02515000      -2.14011000      -0.90608000      -0.26720000
C       -0.59170000      -3.43631000      -1.14201000      -0.02835000
C       -0.55234000       3.62275000      -0.00921000      -0.02469000
H       -1.27408000       3.77049000      -0.81932000       0.09689000
H        0.89953000       0.57886000       2.12324000       0.13149000
H       -1.62156000      -0.85908000       3.13802000       0.11463000
H       -1.37841000      -3.30949000      -1.89073000       0.10015000
H       -1.06259000      -3.77459000      -0.21864000       0.10218000
O        0.07314000       2.32082000      -0.18586000      -0.26672000
H       -1.08908000       3.61433000       0.94208000       0.10679000
O       -0.70667000       2.19703000       2.83265000      -0.24600000
C        2.26312000      -1.69264000       1.99526000      -0.09103000
C        0.11931000      -2.79052000       2.15817000      -0.10316000
C        2.90273000      -2.92675000       1.97934000      -0.07146000
H        2.85425000      -0.78306000       1.93158000       0.11556000
C        0.74385000      -4.02978000       2.13542000      -0.07372000
H       -0.96236000      -2.75648000       2.17574000       0.11637000
C        2.14420000      -4.10804000       2.04641000      -0.09629000
H        3.98397000      -2.98519000       1.90928000       0.11913000
H        0.14861000      -4.93649000       2.16273000       0.11876000
H        1.02701000       0.03214000      -0.34809000       0.13146000
Br      -4.91769000      -0.19274000      -1.16449000      -0.27963000
C       -7.08330000      -0.35437000       4.61163000      -0.19405000
C       -7.46366000       1.00012000       4.00547000      -0.19334000
C       -6.23830000       1.68526000       3.38859000      -0.20410000
C       -5.54659000       0.79410000       2.34170000      -0.01154000
C       -5.16509000      -0.57197000       2.95068000      -0.01309000
C       -6.40627000      -1.24686000       3.56224000      -0.20022000
H       -6.52582000       2.63338000       2.92682000       0.11270000
H       -8.22737000       0.84865000       3.22869000       0.09903000
H       -7.91160000       1.65128000       4.76535000       0.10653000
H       -6.39335000      -0.19802000       5.45317000       0.10038000
H       -7.96641000      -0.86333000       5.01602000       0.10566000
H       -6.22481000       0.60958000       1.49860000       0.11100000
H       -4.40687000      -0.39646000       3.72477000       0.11205000
H       -7.11747000      -1.46226000       2.75035000       0.10285000
H       -6.13995000      -2.20885000       4.01294000       0.10595000
H       -5.50971000       1.92999000       4.17428000       0.10605000
N       -4.33003000       1.40917000       1.76104000      -0.35128000
N       -4.50502000      -1.41306000       1.90358000      -0.34216000
H       -5.21944000      -1.66936000       1.21781000       0.20586000
H       -3.70095000       1.63801000       2.54128000       0.21203000
C       -3.87846000      -2.63413000       2.44861000      -0.09347000
H       -4.51675000      -3.07913000       3.22324000       0.10857000
H       -2.96346000      -2.32200000       2.96256000       0.10220000
C       -4.56409000       2.62604000       0.93153000      -0.10253000
H       -3.75249000       2.66303000       0.20355000       0.12085000
H       -5.48117000       2.46089000       0.36197000       0.11123000
C       -4.61107000       3.93743000       1.69165000      -0.02483000
C       -3.59973000       4.28364000       2.60143000      -0.11386000
C       -5.64318000       4.85244000       1.44954000      -0.10820000
C       -3.63485000       5.51482000       3.25804000      -0.10084000
H       -2.78707000       3.59549000       2.81920000       0.11639000
C       -5.67425000       6.08711000       2.10172000      -0.10458000
H       -6.43060000       4.59395000       0.74448000       0.10840000
C       -4.66936000       6.42101000       3.01122000      -0.11109000
H       -2.84791000       5.76481000       3.96481000       0.10932000
H       -6.48500000       6.78315000       1.90231000       0.10849000
H       -4.69231000       7.37874000       3.52443000       0.10829000
C       -3.56225000      -3.72069000       1.43831000      -0.02103000
C       -3.96294000      -3.68108000       0.09962000      -0.10631000
C       -2.86935000      -4.84928000       1.90517000      -0.11288000
C       -3.69400000      -4.76187000      -0.74612000      -0.09995000
H       -4.44378000      -2.80104000      -0.31616000       0.11914000
C       -2.58669000      -5.91969000       1.05713000      -0.10706000
H       -2.55609000      -4.89165000       2.94731000       0.10781000
C       -3.00785000      -5.88166000      -0.27615000      -0.11221000
H       -4.01417000      -4.71232000      -1.78327000       0.11141000
H       -2.05009000      -6.78484000       1.43781000       0.11017000
H       -2.79895000      -6.71676000      -0.93915000       0.11007000
C        0.50615000      -4.37537000      -1.59599000      -0.30236000
H        1.27652000      -4.46663000      -0.82397000       0.10587000
H        0.08088000      -5.36773000      -1.77942000       0.10989000
H        0.97603000      -4.02024000      -2.51848000       0.10661000
C        0.55898000       4.65231000      -0.02957000      -0.30242000
H        0.13207000       5.65330000       0.09387000       0.10981000
H        1.26084000       4.47176000       0.79058000       0.10637000
H        1.10880000       4.62262000      -0.97587000       0.10469000
C        2.78876000      -5.38707000       2.00633000       0.16100000
N        3.30477000      -6.42901000       1.96768000      -0.17882000
