84
R1TS1minor.xyz  (col5 = NBO charge)
O       -2.40894000       1.28429000       3.90096000      -0.26899000
N       -1.38109000       1.18375000       3.16271000       0.23108000
C       -1.00966000      -0.07684000       2.73524000      -0.11125000
C        0.22020000      -0.26964000       2.06614000      -0.05726000
C        0.88080000      -1.59799000       2.11003000      -0.04022000
O       -1.91655000      -1.44314000      -0.02743000      -0.33715000
C       -0.73446000      -1.20418000      -0.33418000       0.41671000
C        0.00000000      -0.00000000      -0.00000000      -0.22150000
C       -0.71333000       1.25801000      -0.02760000       0.41862000
O       -1.93680000       1.38611000       0.15524000      -0.34013000
Ni      -3.29113000      -0.08063000       0.73123000       1.35935000
O        0.01697000      -2.12890000      -0.93328000      -0.26095000
C       -0.62053000      -3.39562000      -1.19782000      -0.11383000
C       -0.56368000       3.60497000      -0.04326000      -0.11325000
H       -1.34524000       3.73973000      -0.79593000       0.09671000
H        0.89351000       0.58150000       2.12469000       0.12990000
H       -1.60786000      -0.86837000       3.15356000       0.11476000
H       -1.49170000      -3.25323000      -1.83978000       0.10103000
H       -0.93633000      -3.86623000      -0.26605000       0.10041000
O        0.07213000       2.31952000      -0.20556000      -0.26200000
H        0.13985000      -3.99732000      -1.69542000       0.09911000
H        0.23308000       4.33561000      -0.18195000       0.09844000
H       -0.99298000       3.67715000       0.95832000       0.10594000
O       -0.72252000       2.19358000       2.82038000      -0.24752000
C        2.28220000      -1.66837000       2.08679000      -0.09142000
C        0.15039000      -2.79760000       2.15385000      -0.10423000
C        2.93627000      -2.89939000       2.12234000      -0.10196000
H        2.86084000      -0.74873000       2.04379000       0.11079000
C        0.80240000      -4.02786000       2.18051000      -0.10307000
H       -0.93218000      -2.77603000       2.11902000       0.11159000
C        2.19852000      -4.08453000       2.16898000      -0.10106000
H        4.02220000      -2.93276000       2.11033000       0.11105000
H        0.21313000      -4.94065000       2.19665000       0.10989000
H        2.70747000      -5.04421000       2.19098000       0.11020000
H        1.02711000       0.03098000      -0.34398000       0.13186000
Br      -4.91739000      -0.17927000      -1.14688000      -0.28174000
C       -7.04814000      -0.40167000       4.64537000      -0.19407000
C       -7.44215000       0.95380000       4.05032000      -0.19328000
C       -6.22606000       1.65157000       3.42923000      -0.20422000
C       -5.53412000       0.77297000       2.37162000      -0.01145000
C       -5.14124000      -0.59551000       2.96851000      -0.01323000
C       -6.37359000      -1.28223000       3.58463000      -0.20015000
H       -6.52426000       2.60045000       2.97621000       0.11265000
H       -8.21022000       0.80144000       3.27795000       0.09888000
H       -7.88946000       1.59722000       4.81724000       0.10633000
H       -6.35237000      -0.24562000       5.48217000       0.10039000
H       -7.92462000      -0.91904000       5.05375000       0.10538000
H       -6.21502000       0.59068000       1.53009000       0.11077000
H       -4.37785000      -0.42104000       3.73763000       0.11245000
H       -7.08980000      -1.49605000       2.77667000       0.10265000
H       -6.09772000      -2.24603000       4.02577000       0.10583000
H       -5.49386000       1.89659000       4.21142000       0.10607000
N       -4.32316000       1.39859000       1.79077000      -0.35179000
N       -4.48628000      -1.42484000       1.91011000      -0.34208000
H       -5.20478000      -1.67777000       1.22757000       0.20563000
H       -3.69226000       1.62364000       2.57109000       0.21223000
C       -3.84709000      -2.64711000       2.43714000      -0.09373000
H       -4.46587000      -3.09338000       3.22674000       0.10796000
H       -2.91795000      -2.33806000       2.92592000       0.10341000
C       -4.56341000       2.62076000       0.97187000      -0.10288000
H       -3.74582000       2.67234000       0.25150000       0.12078000
H       -5.47420000       2.45203000       0.39333000       0.11117000
C       -4.62847000       3.92373000       1.74507000      -0.02466000
C       -3.61794000       4.27496000       2.65388000      -0.11340000
C       -5.67733000       4.82392000       1.52036000      -0.10848000
C       -3.67149000       5.49590000       3.32801000      -0.10093000
H       -2.79203000       3.59755000       2.85579000       0.11693000
C       -5.72663000       6.04874000       2.18987000      -0.10495000
H       -6.46384000       4.56112000       0.81581000       0.10826000
C       -4.72319000       6.38710000       3.09930000      -0.11131000
H       -2.88521000       5.75021000       4.03401000       0.10922000
H       -6.55021000       6.73344000       2.00402000       0.10829000
H       -4.76016000       7.33701000       3.62617000       0.10810000
C       -3.55821000      -3.73056000       1.41582000      -0.02012000
C       -3.97447000      -3.67690000       0.08250000      -0.10685000
C       -2.87169000      -4.86933000       1.86608000      -0.11173000
C       -3.72876000      -4.75470000      -0.77386000      -0.10074000
H       -4.45008000      -2.78854000      -0.32152000       0.11912000
C       -2.61306000      -5.93705000       1.00753000      -0.10713000
H       -2.54220000      -4.92020000       2.90262000       0.10793000
C       -3.05032000      -5.88560000      -0.31993000      -0.11275000
H       -4.06195000      -4.69456000      -1.80647000       0.11106000
H       -2.08117000      -6.81044000       1.37598000       0.10907000
H       -2.85965000      -6.71846000      -0.99131000       0.10945000
