91
R1TS8majorsCN.xyz  (col5 = NBO charge)
O       -2.25637000       0.17500000      -2.57957000      -0.28275000
N       -1.69627000      -0.91488000      -2.97072000       0.22616000
C       -0.36333000      -1.09136000      -2.75419000      -0.09113000
C        0.39540000      -0.07814000      -2.13932000       0.00186000
C        1.86522000      -0.17933000      -2.07173000      -0.04221000
O       -1.90757000       1.48728000       0.00122000      -0.32066000
C       -0.69408000       1.27245000       0.11114000       0.41419000
C       -0.00203000       0.00039000       0.00783000      -0.23411000
C       -0.71917000      -1.24550000       0.11389000       0.41593000
O       -1.92926000      -1.42682000      -0.08296000      -0.32814000
Ni      -3.38991000       0.07379000      -0.60152000       1.34018000
O        0.16760000       2.29034000       0.26415000      -0.27454000
C       -0.41412000       3.62263000       0.31476000      -0.02634000
C       -0.51900000      -3.60503000       0.27727000      -0.02296000
H       -1.22609000      -3.68053000       1.10945000       0.09983000
H       -0.00212000       0.92396000      -2.25779000       0.12016000
H        0.01038000      -2.06137000      -3.04403000       0.11705000
H       -1.07876000       3.67995000       1.17992000       0.10111000
H       -1.02879000       3.77790000      -0.57553000       0.09987000
O        0.09795000      -2.29256000       0.31086000      -0.27440000
H       -1.08691000      -3.70588000      -0.65335000       0.09692000
O       -2.37341000      -1.80566000      -3.54441000      -0.24752000
C        2.63276000       0.99826000      -2.08428000      -0.09161000
C        2.52513000      -1.41601000      -1.95518000      -0.09412000
C        4.01927000       0.94861000      -2.01293000      -0.07353000
H        2.13031000       1.95950000      -2.13911000       0.11532000
C        3.91027000      -1.47723000      -1.88069000      -0.07301000
H        1.94778000      -2.33171000      -1.89010000       0.11449000
C        4.66919000      -0.29365000      -1.91537000      -0.09309000
H        4.60488000       1.86192000      -2.02917000       0.11916000
H        4.41374000      -2.43407000      -1.78884000       0.11888000
H        1.01621000      -0.00710000       0.37237000       0.13248000
Br      -4.69906000       0.10463000       1.52613000      -0.28932000
C       -7.48159000       0.52613000      -4.10809000      -0.19428000
C       -7.83742000      -0.85153000      -3.53968000      -0.19353000
C       -6.58352000      -1.57681000      -3.03534000      -0.20366000
C       -5.80494000      -0.74672000      -1.99767000      -0.01157000
C       -5.45125000       0.64561000      -2.57193000      -0.01054000
C       -6.72419000       1.35734000      -3.06468000      -0.20018000
H       -6.85304000      -2.54316000      -2.60231000       0.11283000
H       -8.54614000      -0.72808000      -2.70776000       0.09890000
H       -8.34301000      -1.46419000      -4.29569000       0.10572000
H       -6.85181000       0.40262000      -5.00098000       0.09950000
H       -8.38389000       1.06102000      -4.42828000       0.10513000
H       -6.41929000      -0.59207000      -1.10112000       0.10862000
H       -4.74857000       0.50153000      -3.40139000       0.11138000
H       -7.37703000       1.53562000      -2.19668000       0.10183000
H       -6.47338000       2.34105000      -3.47658000       0.10614000
H       -5.91247000      -1.79039000      -3.88019000       0.10351000
N       -4.56531000      -1.41196000      -1.52973000      -0.34256000
N       -4.71751000       1.44616000      -1.55122000      -0.33079000
H       -5.37683000       1.71559000      -0.81849000       0.20312000
H       -3.99966000      -1.66740000      -2.34719000       0.21001000
C       -4.04263000       2.64441000      -2.10352000      -0.09741000
H       -4.61029000       3.04379000      -2.95414000       0.10387000
H       -3.08097000       2.30529000      -2.49980000       0.11619000
C       -4.74969000      -2.60372000      -0.65517000      -0.10471000
H       -3.83668000      -2.68589000      -0.06186000       0.11878000
H       -5.54891000      -2.36791000       0.04983000       0.11280000
C       -5.00196000      -3.91591000      -1.36979000      -0.02209000
C       -4.08650000      -4.39647000      -2.31833000      -0.11155000
C       -6.12617000      -4.69284000      -1.06542000      -0.10730000
C       -4.30423000      -5.61686000      -2.95830000      -0.10266000
H       -3.20819000      -3.80663000      -2.56908000       0.11308000
C       -6.34241000      -5.91854000      -1.69989000      -0.10438000
H       -6.83902000      -4.33196000      -0.32707000       0.10924000
C       -5.43281000      -6.38233000      -2.65175000      -0.11098000
H       -3.59033000      -5.97190000      -3.69723000       0.10830000
H       -7.22200000      -6.50727000      -1.45259000       0.10878000
H       -5.60053000      -7.33323000      -3.15049000       0.10845000
C       -3.82280000       3.76906000      -1.11095000      -0.02075000
C       -3.99098000       3.62914000       0.27090000      -0.10954000
C       -3.39412000       5.00568000      -1.61753000      -0.11017000
C       -3.74177000       4.70909000       1.12302000      -0.10241000
H       -4.27469000       2.67553000       0.70510000       0.12082000
C       -3.12823000       6.07743000      -0.76582000      -0.10764000
H       -3.26409000       5.12770000      -2.69162000       0.10739000
C       -3.30541000       5.93259000       0.61370000      -0.11411000
H       -3.87928000       4.57937000       2.19328000       0.11075000
H       -2.79482000       7.02611000      -1.17862000       0.10849000
H       -3.10891000       6.76736000       1.28135000       0.10861000
C        0.60041000      -4.62244000       0.38199000      -0.30203000
H        0.18291000      -5.63472000       0.37232000       0.11041000
H        1.29404000      -4.52746000      -0.46055000       0.10205000
H        1.16459000      -4.48696000       1.30987000       0.10727000
C        0.73154000       4.60998000       0.40098000      -0.30202000
H        1.38336000       4.53328000      -0.47622000       0.10234000
H        0.32695000       5.62672000       0.44322000       0.11019000
H        1.33584000       4.43626000       1.29704000       0.10611000
C        6.09879000      -0.35427000      -1.84138000       0.16046000
N        7.25955000      -0.40386000      -1.78185000      -0.17793000
