92
R1TS8majorsNO2.xyz  (col5 = NBO charge)
O       -2.27373000       0.17289000      -2.57754000      -0.28038000
N       -1.71407000      -0.91549000      -2.97055000       0.22811000
C       -0.37902000      -1.09077000      -2.75808000      -0.07546000
C        0.37921000      -0.07677000      -2.14671000      -0.05140000
C        1.84962000      -0.17536000      -2.08184000      -0.02020000
O       -1.90759000       1.48751000       0.00113000      -0.32047000
C       -0.69403000       1.27274000       0.11093000       0.41462000
C       -0.00244000       0.00030000       0.00848000      -0.23054000
C       -0.71881000      -1.24602000       0.11309000       0.41623000
O       -1.92925000      -1.42673000      -0.08253000      -0.32817000
Ni      -3.39372000       0.07492000      -0.58897000       1.34013000
O        0.16797000       2.29031000       0.26163000      -0.27411000
C       -0.41302000       3.62320000       0.31218000      -0.02627000
C       -0.51838000      -3.60599000       0.27612000      -0.02291000
H       -1.22139000      -3.68071000       1.11182000       0.09989000
H       -0.02127000       0.92455000      -2.26075000       0.12518000
H       -0.00575000      -2.06106000      -3.04757000       0.11768000
H       -1.07396000       3.68192000       1.18007000       0.10114000
H       -1.03137000       3.77698000      -0.57580000       0.09995000
O        0.09880000      -2.29320000       0.30618000      -0.27426000
H       -1.09104000      -3.70742000      -0.65146000       0.09690000
O       -2.39093000      -1.80719000      -3.54172000      -0.24523000
C        2.61450000       1.00471000      -2.10154000      -0.08859000
C        2.51040000      -1.41217000      -1.96293000      -0.09208000
C        4.00200000       0.95880000      -2.03420000      -0.09017000
H        2.11043000       1.96472000      -2.15877000       0.11622000
C        3.89637000      -1.47310000      -1.89242000      -0.08997000
H        1.93394000      -2.32773000      -1.89212000       0.11539000
C        4.62552000      -0.28432000      -1.93551000       0.03435000
H        4.60333000       1.85911000      -2.05429000       0.12803000
H        4.41937000      -2.41666000      -1.79872000       0.12771000
H        1.01697000      -0.00731000       0.36978000       0.13252000
Br      -4.68939000       0.10832000       1.54484000      -0.28858000
C       -7.50102000       0.49505000      -4.08033000      -0.19428000
C       -7.85242000      -0.87842000      -3.49920000      -0.19356000
C       -6.59495000      -1.59707000      -2.99427000      -0.20359000
C       -5.81340000      -0.75698000      -1.96749000      -0.01148000
C       -5.46503000       0.63182000      -2.55276000      -0.01063000
C       -6.74152000       1.33667000      -3.04673000      -0.20022000
H       -6.86012000      -2.56058000      -2.55190000       0.11260000
H       -8.55797000      -0.74942000      -2.66543000       0.09888000
H       -8.35994000      -1.49807000      -4.24817000       0.10580000
H       -6.87425000       0.36509000      -4.97440000       0.09954000
H       -8.40540000       1.02560000      -4.40178000       0.10520000
H       -6.42285000      -0.59683000      -1.06860000       0.10867000
H       -4.76426000       0.48403000      -3.38317000       0.11149000
H       -7.39169000       1.52093000      -2.17795000       0.10179000
H       -6.49442000       2.31734000      -3.46795000       0.10630000
H       -5.92727000      -1.81636000      -3.84034000       0.10361000
N       -4.57062000      -1.41761000      -1.50167000      -0.34238000
N       -4.73003000       1.44036000      -1.53882000      -0.33071000
H       -5.38760000       1.71121000      -0.80502000       0.20315000
H       -4.01037000      -1.67794000      -2.32109000       0.20979000
C       -4.06181000       2.63815000      -2.09960000      -0.09741000
H       -4.63928000       3.03702000      -2.94389000       0.10400000
H       -3.10477000       2.29873000      -2.50660000       0.11611000
C       -4.75192000      -2.60559000      -0.62012000      -0.10441000
H       -3.84858000      -2.67078000      -0.01034000       0.11893000
H       -5.56679000      -2.37746000       0.06922000       0.11261000
C       -4.97317000      -3.92572000      -1.33016000      -0.02212000
C       -4.03432000      -4.39922000      -2.25918000      -0.11148000
C       -6.09049000      -4.71760000      -1.03938000      -0.10714000
C       -4.22223000      -5.62742000      -2.89364000      -0.10264000
H       -3.16167000      -3.79730000      -2.50051000       0.11281000
C       -6.27684000      -5.95121000      -1.66795000      -0.10433000
H       -6.82129000      -4.36258000      -0.31587000       0.10922000
C       -5.34393000      -6.40802000      -2.60043000      -0.11080000
H       -3.49050000      -5.97657000      -3.61775000       0.10832000
H       -7.15143000      -6.55161000      -1.43125000       0.10882000
H       -5.48842000      -7.36508000      -3.09459000       0.10850000
C       -3.83055000       3.76376000      -1.11058000      -0.02065000
C       -3.99365000       3.62871000       0.27231000      -0.10954000
C       -3.39798000       4.99679000      -1.62262000      -0.11021000
C       -3.73581000       4.71001000       1.12019000      -0.10234000
H       -4.27974000       2.67772000       0.71069000       0.12069000
C       -3.12377000       6.06983000      -0.77524000      -0.10757000
H       -3.27171000       5.11495000      -2.69758000       0.10742000
C       -3.29606000       5.92997000       0.60544000      -0.11411000
H       -3.86935000       4.58404000       2.19140000       0.11076000
H       -2.78748000       7.01566000      -1.19221000       0.10853000
H       -3.09299000       6.76582000       1.26976000       0.10864000
C        0.60139000      -4.62341000       0.37597000      -0.30207000
H        0.18348000      -5.63553000       0.36915000       0.11054000
H        1.29093000      -4.52950000      -0.47002000       0.10212000
H        1.17027000      -4.48748000       1.30090000       0.10737000
C        0.73355000       4.60999000       0.39197000      -0.30206000
H        1.38177000       4.53144000      -0.48770000       0.10242000
H        0.32970000       5.62702000       0.43403000       0.11025000
H        1.34146000       4.43758000       1.28581000       0.10619000
N        6.09417000      -0.34386000      -1.86347000       0.25005000
O        6.61638000      -1.45479000      -1.77307000      -0.19530000
O        6.71076000       0.72077000      -1.89827000      -0.19532000
