86
R1TS1minorsNO2.xyz  (col5 = NBO charge)
O       -2.44351000       1.31600000       3.86848000      -0.26465000
N       -1.40234000       1.20951000       3.15406000       0.23216000
C       -1.02756000      -0.05678000       2.73915000      -0.11067000
C        0.20063000      -0.25362000       2.07385000      -0.06566000
C        0.84357000      -1.59099000       2.11341000      -0.01671000
O       -1.91646000      -1.44187000      -0.02666000      -0.33545000
C       -0.73545000      -1.20400000      -0.33571000       0.41523000
C        0.00087000      -0.00018000       0.00173000      -0.21841000
C       -0.71355000       1.25902000      -0.02854000       0.41855000
O       -1.93655000       1.38383000       0.15522000      -0.33916000
Ni      -3.30720000      -0.07999000       0.71287000       1.35832000
O        0.01657000      -2.12747000      -0.93568000      -0.26152000
C       -0.62520000      -3.38945000      -1.21902000      -0.11426000
C       -0.56442000       3.60652000      -0.05773000      -0.11328000
H       -1.34671000       3.73323000      -0.81081000       0.09731000
H        0.88326000       0.58959000       2.13622000       0.13169000
H       -1.64481000      -0.84356000       3.13822000       0.11529000
H       -1.49483000      -3.23410000      -1.85997000       0.10211000
H       -0.94548000      -3.87104000      -0.29461000       0.10001000
O        0.07160000       2.31873000      -0.20850000      -0.26116000
H        0.13370000      -3.98699000      -1.72349000       0.10026000
H        0.23231000       4.33536000      -0.20429000       0.09915000
H       -0.99267000       3.68785000       0.94354000       0.10591000
O       -0.73000000       2.21183000       2.82061000      -0.24460000
C        2.24512000      -1.68550000       2.08830000      -0.08986000
C        0.08882000      -2.77736000       2.14612000      -0.10349000
C        2.88148000      -2.92242000       2.10361000      -0.08747000
H        2.84183000      -0.77817000       2.05611000       0.11646000
C        0.70757000      -4.02010000       2.15225000      -0.08962000
H       -0.99205000      -2.73767000       2.11167000       0.11767000
C        2.10027000      -4.07686000       2.13349000       0.03268000
H        3.96103000      -3.00669000       2.08824000       0.12797000
H        0.12661000      -4.93373000       2.15284000       0.12819000
H        1.02814000       0.03123000      -0.34244000       0.13206000
Br      -4.89693000      -0.21189000      -1.18597000      -0.27870000
C       -7.12779000      -0.33349000       4.56838000      -0.19405000
C       -7.50730000       1.01325000       3.94489000      -0.19336000
C       -6.27808000       1.69819000       3.33541000      -0.20411000
C       -5.57016000       0.80022000       2.30543000      -0.01167000
C       -5.18972000      -0.55805000       2.93163000      -0.01310000
C       -6.43483000      -1.23283000       3.53543000      -0.20019000
H       -6.56497000       2.64039000       2.86145000       0.11276000
H       -8.26143000       0.85088000       3.16101000       0.09909000
H       -7.96667000       1.66973000       4.69325000       0.10660000
H       -6.44833000      -0.16589000       5.41626000       0.10041000
H       -8.01312000      -0.84270000       4.96749000       0.10578000
H       -6.23711000       0.60447000       1.45595000       0.11113000
H       -4.44118000      -0.37242000       3.71276000       0.11206000
H       -7.13574000      -1.45929000       2.71764000       0.10290000
H       -6.16948000      -2.18907000       3.99858000       0.10599000
H       -5.55977000       1.95405000       4.12705000       0.10602000
N       -4.34942000       1.41458000       1.73258000      -0.35087000
N       -4.51439000      -1.40517000       1.89902000      -0.34222000
H       -5.22074000      -1.66898000       1.20775000       0.20588000
H       -3.72978000       1.65274000       2.51725000       0.21187000
C       -3.89303000      -2.62160000       2.46114000      -0.09336000
H       -4.54200000      -3.06232000       3.22916000       0.10877000
H       -2.98593000      -2.30548000       2.98663000       0.10210000
C       -4.57909000       2.62453000       0.89137000      -0.10247000
H       -3.76177000       2.65733000       0.16974000       0.12053000
H       -5.49140000       2.45337000       0.31607000       0.11137000
C       -4.63472000       3.94022000       1.64320000      -0.02493000
C       -3.62746000       4.29515000       2.55401000      -0.11367000
C       -5.67168000       4.84821000       1.39575000      -0.10818000
C       -3.67194000       5.52743000       3.20786000      -0.10077000
H       -2.81070000       3.61256000       2.77427000       0.11604000
C       -5.71186000       6.08435000       2.04468000      -0.10451000
H       -6.45589000       4.58289000       0.68964000       0.10845000
C       -4.71159000       6.42642000       2.95621000      -0.11088000
H       -2.88839000       5.78424000       3.91592000       0.10937000
H       -6.52618000       6.77502000       1.84134000       0.10857000
H       -4.74186000       7.38514000       3.46713000       0.10837000
C       -3.56195000      -3.71402000       1.46215000      -0.02179000
C       -3.96519000      -3.69447000       0.12389000      -0.10682000
C       -2.85576000      -4.82911000       1.94113000      -0.11301000
C       -3.68713000      -4.78299000      -0.70889000      -0.10040000
H       -4.45548000      -2.82442000      -0.30196000       0.11868000
C       -2.56190000      -5.90619000       1.10551000      -0.10696000
H       -2.53854000      -4.85501000       2.98253000       0.10803000
C       -2.98723000      -5.88905000      -0.22693000      -0.11193000
H       -4.01131000      -4.75048000      -1.74559000       0.11125000
H       -2.01104000      -6.75841000       1.49464000       0.11105000
H       -2.76945000      -6.72927000      -0.88042000       0.11027000
N        2.76034000      -5.39127000       2.13269000       0.25078000
O        2.04066000      -6.39061000       2.14268000      -0.19650000
O        3.99064000      -5.41356000       2.11992000      -0.19474000
