95
R1TS8minorsCNcNO2.xyz  (col5 = NBO charge)
O       -2.44855000       1.27737000       3.88378000      -0.26702000
N       -1.40584000       1.17927000       3.16704000       0.23175000
C       -1.02595000      -0.08192000       2.74574000      -0.10861000
C        0.20378000      -0.26945000       2.08188000      -0.06193000
C        0.86031000      -1.59842000       2.10987000      -0.02199000
O       -1.91813000      -1.44220000      -0.02865000      -0.34067000
C       -0.73081000      -1.20941000      -0.33079000       0.41672000
C       -0.00244000       0.00030000      -0.00552000      -0.21858000
C       -0.71172000       1.26119000      -0.02333000       0.41803000
O       -1.93803000       1.38692000       0.15431000      -0.34188000
Ni      -3.30085000      -0.06920000       0.69706000       1.35880000
O        0.03462000      -2.14181000      -0.89352000      -0.26541000
C       -0.56603000      -3.44738000      -1.11674000      -0.02916000
C       -0.54207000       3.62432000      -0.00714000      -0.02424000
H       -1.26592000       3.77001000      -0.81581000       0.09699000
H        0.87736000       0.58120000       2.13844000       0.13209000
H       -1.63965000      -0.87287000       3.14308000       0.11486000
H       -1.32372000      -3.34412000      -1.89860000       0.09998000
H       -1.06677000      -3.75380000      -0.19871000       0.09871000
O        0.07681000       2.31871000      -0.17839000      -0.26562000
H       -1.07491000       3.62216000       0.94664000       0.10514000
O       -0.74326000       2.18923000       2.83782000      -0.24337000
C        2.25994000      -1.67656000       2.02799000      -0.08928000
C        0.12595000      -2.79471000       2.18867000      -0.10285000
C        2.91234000      -2.90399000       2.03622000      -0.07057000
H        2.84220000      -0.76190000       1.95705000       0.11615000
C        0.76396000      -4.02730000       2.19085000      -0.07418000
H       -0.95657000      -2.76777000       2.20013000       0.11386000
C        2.16611000      -4.09187000       2.11784000      -0.09381000
H        3.99462000      -2.95222000       1.97678000       0.12005000
H        0.18289000      -4.94272000       2.23101000       0.11752000
H        1.02756000       0.03180000      -0.34059000       0.13227000
Br      -4.91159000      -0.12903000      -1.18759000      -0.27654000
C       -7.07720000      -0.33224000       4.61141000      -0.19411000
C       -7.45480000       1.02575000       4.01199000      -0.19346000
C       -6.22900000       1.70430000       3.38884000      -0.20393000
C       -5.55022000       0.81324000       2.33379000      -0.01158000
C       -5.17801000      -0.56153000       2.92964000      -0.01328000
C       -6.41752000      -1.22788000       3.55349000      -0.20044000
H       -6.51599000       2.65533000       2.93151000       0.11113000
H       -8.22521000       0.88187000       3.24066000       0.09964000
H       -7.89209000       1.67752000       4.77709000       0.10761000
H       -6.37824000      -0.18257000       5.44651000       0.10100000
H       -7.95957000      -0.83603000       5.02297000       0.10676000
H       -6.23273000       0.64215000       1.49129000       0.11142000
H       -4.40664000      -0.40166000       3.69383000       0.11297000
H       -7.13917000      -1.43880000       2.74968000       0.10318000
H       -6.15284000      -2.19100000       4.00278000       0.10606000
H       -5.49388000       1.94135000       4.17076000       0.10645000
N       -4.32778000       1.42042000       1.75545000      -0.35171000
N       -4.54406000      -1.39629000       1.86030000      -0.34293000
H       -5.26850000      -1.60700000       1.16940000       0.20589000
H       -3.69606000       1.63291000       2.53831000       0.21196000
C       -3.95724000      -2.65127000       2.36604000      -0.09724000
H       -4.62361000      -3.12574000       3.09887000       0.11245000
H       -3.04884000      -2.38470000       2.91652000       0.10572000
C       -4.54946000       2.64173000       0.93546000      -0.10692000
H       -3.73460000       2.68338000       0.21039000       0.12489000
H       -5.46546000       2.49134000       0.36079000       0.11390000
C       -4.58404000       3.94978000       1.70112000      -0.00005000
C       -3.58214000       4.27139000       2.63268000      -0.11086000
C       -5.59305000       4.88719000       1.43693000      -0.10428000
C       -3.59687000       5.49712000       3.29222000      -0.08701000
H       -2.78660000       3.56904000       2.86447000       0.12198000
C       -5.61883000       6.11936000       2.08482000      -0.09229000
H       -6.37053000       4.64830000       0.71582000       0.11453000
C       -4.61615000       6.40582000       3.00913000       0.02709000
H       -2.83370000       5.75605000       4.01573000       0.12681000
H       -6.39497000       6.84953000       1.89169000       0.12834000
C       -3.63052000      -3.69112000       1.31335000       0.00265000
C       -4.04798000      -3.60038000      -0.01899000      -0.10258000
C       -2.90326000      -4.82133000       1.72649000      -0.10846000
C       -3.75187000      -4.62008000      -0.92217000      -0.08421000
H       -4.55405000      -2.71657000      -0.39367000       0.12435000
C       -2.57314000      -5.83169000       0.83030000      -0.09405000
H       -2.58478000      -4.90596000       2.76331000       0.11355000
C       -3.00801000      -5.71378000      -0.49063000       0.02307000
H       -4.06210000      -4.55483000      -1.95798000       0.12855000
H       -1.99031000      -6.69443000       1.12932000       0.12727000
C        0.54388000      -4.40467000      -1.49876000      -0.30353000
H        1.30287000      -4.44134000      -0.71148000       0.10678000
H        0.13148000      -5.41194000      -1.62357000       0.11112000
H        1.02431000      -4.10429000      -2.43474000       0.10815000
C        0.57300000       4.64949000      -0.03763000      -0.30265000
H        0.15098000       5.65296000       0.08191000       0.11003000
H        1.27815000       4.47133000       0.78006000       0.10689000
H        1.11774000       4.61226000      -0.98638000       0.10559000
C        2.82686000      -5.36322000       2.11495000       0.15919000
N        3.35960000      -6.39717000       2.11126000      -0.17468000
N       -2.61931000      -6.74362000      -1.46544000       0.25074000
O       -1.74989000      -7.54801000      -1.12380000      -0.19706000
O       -3.16956000      -6.72816000      -2.56452000      -0.19238000
N       -4.63506000       7.70244000       3.70442000       0.25080000
O       -5.55272000       8.47993000       3.44030000      -0.19876000
O       -3.73237000       7.93367000       4.50873000      -0.19725000
