90
R1TS8minor.xyz  (col5 = NBO charge)
O       -2.39481000       1.26756000       3.90235000      -0.27029000
N       -1.36423000       1.16950000       3.16659000       0.23049000
C       -0.99177000      -0.08845000       2.73621000      -0.11037000
C        0.23297000      -0.27910000       2.05664000      -0.05806000
C        0.89278000      -1.60892000       2.08516000      -0.03935000
O       -1.91754000      -1.44077000      -0.02788000      -0.33795000
C       -0.73292000      -1.20736000      -0.33208000       0.41812000
C       -0.00031000       0.00021000      -0.00384000      -0.22063000
C       -0.71262000       1.26005000      -0.02412000       0.41839000
O       -1.93775000       1.38467000       0.15395000      -0.34065000
Ni      -3.29244000      -0.08110000       0.72555000       1.36089000
O        0.02467000      -2.13978000      -0.90652000      -0.26675000
C       -0.58780000      -3.43899000      -1.12766000      -0.02697000
C       -0.55122000       3.62106000       0.00143000      -0.02467000
H       -1.27279000       3.77554000      -0.80773000       0.09632000
H        0.90776000       0.57095000       2.11510000       0.12986000
H       -1.59400000      -0.88072000       3.14691000       0.11430000
H       -1.37406000      -3.32468000      -1.87894000       0.09898000
H       -1.05701000      -3.76969000      -0.20072000       0.10294000
O        0.07367000       2.32134000      -0.18359000      -0.26744000
H       -1.08804000       3.60730000       0.95265000       0.10681000
O       -0.70510000       2.18171000       2.83035000      -0.24857000
C        2.29174000      -1.68311000       2.00036000      -0.09119000
C        0.16329000      -2.80705000       2.16405000      -0.10389000
C        2.94445000      -2.91512000       2.00799000      -0.10232000
H        2.86970000      -0.76486000       1.92835000       0.11066000
C        0.81298000      -4.03894000       2.16441000      -0.10337000
H       -0.91959000      -2.78435000       2.17685000       0.11114000
C        2.20721000      -4.09913000       2.09014000      -0.10241000
H        4.02864000      -2.95074000       1.94716000       0.11107000
H        0.22303000      -4.95036000       2.20611000       0.11007000
H        2.71455000      -5.05995000       2.09230000       0.11033000
H        1.02638000       0.03191000      -0.34903000       0.13135000
Br      -4.92757000      -0.17148000      -1.14531000      -0.28218000
C       -7.03828000      -0.41017000       4.65162000      -0.19404000
C       -7.42774000       0.95091000       4.06626000      -0.19329000
C       -6.21024000       1.64668000       3.44558000      -0.20417000
C       -5.52636000       0.77119000       2.38022000      -0.01142000
C       -5.13689000      -0.60232000       2.96814000      -0.01320000
C       -6.37051000      -1.28729000       3.58370000      -0.20013000
H       -6.50487000       2.59995000       2.99924000       0.11254000
H       -8.19900000       0.80704000       3.29544000       0.09885000
H       -7.86956000       1.59155000       4.83870000       0.10625000
H       -6.33958000      -0.26257000       5.48752000       0.10035000
H       -7.91608000      -0.92601000       5.05917000       0.10531000
H       -6.21179000       0.59637000       1.54086000       0.11075000
H       -4.37113000      -0.43480000       3.73658000       0.11244000
H       -7.08983000      -1.49315000       2.77644000       0.10260000
H       -6.09751000      -2.25498000       4.01816000       0.10582000
H       -5.47439000       1.88306000       4.22701000       0.10614000
N       -4.31607000       1.39557000       1.79737000      -0.35238000
N       -4.48751000      -1.42928000       1.90438000      -0.34217000
H       -5.20831000      -1.67880000       1.22300000       0.20546000
H       -3.68006000       1.61419000       2.57559000       0.21244000
C       -3.84726000      -2.65329000       2.42574000      -0.09369000
H       -4.46410000      -3.10267000       3.21525000       0.10786000
H       -2.91760000      -2.34436000       2.91367000       0.10332000
C       -4.55599000       2.62163000       0.98441000      -0.10278000
H       -3.74364000       2.67188000       0.25795000       0.12100000
H       -5.47179000       2.45938000       0.41187000       0.11104000
C       -4.60868000       3.92300000       1.76132000      -0.02457000
C       -3.59330000       4.26471000       2.66844000      -0.11364000
C       -5.64964000       4.83297000       1.53907000      -0.10846000
C       -3.63373000       5.48643000       3.34213000      -0.10100000
H       -2.77374000       3.57967000       2.87002000       0.11718000
C       -5.68603000       6.05826000       2.20855000      -0.10497000
H       -6.43991000       4.57770000       0.83597000       0.10825000
C       -4.67730000       6.38759000       3.11546000      -0.11141000
H       -2.84355000       5.73319000       4.04649000       0.10919000
H       -6.50370000       6.75052000       2.02448000       0.10825000
H       -4.70414000       7.33799000       3.64208000       0.10803000
C       -3.55792000      -3.73341000       1.40083000      -0.01981000
C       -3.96986000      -3.67356000       0.06631000      -0.10650000
C       -2.87126000      -4.87362000       1.84750000      -0.11188000
C       -3.71845000      -4.74603000      -0.79503000      -0.10031000
H       -4.44498000      -2.78358000      -0.33460000       0.11924000
C       -2.60718000      -5.93615000       0.98413000      -0.10703000
H       -2.54527000      -4.92945000       2.88494000       0.10785000
C       -3.03952000      -5.87820000      -0.34468000      -0.11319000
H       -4.04635000      -4.68011000      -1.82889000       0.11112000
H       -2.07427000      -6.81016000       1.34952000       0.10902000
H       -2.84459000      -6.70695000      -1.01999000       0.10927000
C        0.51507000      -4.37860000      -1.56864000      -0.30304000
H        1.28180000      -4.45287000      -0.79110000       0.10747000
H        0.09384000      -5.37488000      -1.74159000       0.10813000
H        0.98527000      -4.03188000      -2.49441000       0.10554000
C        0.56063000       4.65051000      -0.01178000      -0.30226000
H        0.13470000       5.65120000       0.11788000       0.10932000
H        1.26195000       4.46370000       0.80744000       0.10632000
H        1.11113000       4.62628000      -0.95794000       0.10433000
