92
R1TS1majorsNMe2.xyz  (col5 = NBO charge)
O       -2.07450000       0.21352000      -2.56941000      -0.29576000
N       -1.50696000      -0.88093000      -2.97331000       0.21403000
C       -0.20206000      -1.07495000      -2.70677000      -0.06540000
C        0.55690000      -0.07411000      -2.03059000      -0.05947000
C        2.01673000      -0.21189000      -1.93792000      -0.02990000
O       -1.90812000       1.48719000       0.00181000      -0.31725000
C       -0.69758000       1.27002000       0.11577000       0.41779000
C        0.00631000      -0.00002000      -0.00372000      -0.23399000
C       -0.72443000      -1.24247000       0.12667000       0.41976000
O       -1.92830000      -1.42693000      -0.08942000      -0.32445000
Ni      -3.35311000       0.07070000      -0.73415000       1.34155000
O        0.16097000       2.28737000       0.30711000      -0.26951000
C       -0.43021000       3.60274000       0.37474000      -0.11384000
C       -0.55436000      -3.57788000       0.38446000      -0.11272000
H       -1.30794000      -3.63696000       1.17429000       0.09942000
H        0.20162000       0.93768000      -2.20258000       0.12129000
H        0.18810000      -2.02994000      -3.02380000       0.11520000
H       -1.13635000       3.66366000       1.20485000       0.10149000
H       -0.96435000       3.83705000      -0.54884000       0.09917000
O        0.08165000      -2.28562000       0.39009000      -0.26761000
H        0.40754000       4.28412000       0.52507000       0.09725000
H        0.24800000      -4.29370000       0.56469000       0.09840000
H       -1.03394000      -3.76572000      -0.58045000       0.09772000
O       -2.18488000      -1.74131000      -3.60772000      -0.26994000
C        2.82571000       0.93613000      -1.89959000      -0.06302000
C        2.66065000      -1.45640000      -1.82465000      -0.09301000
C        4.20638000       0.85690000      -1.79503000      -0.15082000
H        2.35552000       1.91546000      -1.94320000       0.10643000
C        4.03933000      -1.55532000      -1.71599000      -0.13905000
H        2.06957000      -2.36650000      -1.79013000       0.10842000
C        4.85881000      -0.39824000      -1.71352000       0.11081000
H        4.77809000       1.77652000      -1.77404000       0.11173000
H        4.48077000      -2.54008000      -1.62420000       0.11184000
H        1.00019000      -0.00575000       0.42355000       0.13405000
Br      -4.82988000       0.08312000       1.29122000      -0.29455000
C       -7.14274000       0.49953000      -4.56724000      -0.19426000
C       -7.54034000      -0.87839000      -4.02831000      -0.19343000
C       -6.33091000      -1.59598000      -3.41646000      -0.20373000
C       -5.64767000      -0.76108000      -2.31680000      -0.01110000
C       -5.25504000       0.63386000      -2.85870000      -0.01119000
C       -6.48397000       1.33679000      -3.46351000      -0.20009000
H       -6.63175000      -2.56314000      -3.00610000       0.11230000
H       -8.31870000      -0.75614000      -3.26079000       0.09844000
H       -7.97650000      -1.49493000      -4.82365000       0.10528000
H       -6.43599000       0.37661000      -5.40062000       0.09961000
H       -8.01596000       1.02922000      -4.96740000       0.10449000
H       -6.33657000      -0.61192000      -1.47485000       0.10772000
H       -4.47894000       0.49336000      -3.62042000       0.11256000
H       -7.21183000       1.51333000      -2.65682000       0.10126000
H       -6.20385000       2.32106000      -3.85469000       0.10589000
H       -5.58827000      -1.80735000      -4.19945000       0.10414000
N       -4.44672000      -1.41796000      -1.75120000      -0.34498000
N       -4.62049000       1.43983000      -1.77792000      -0.32971000
H       -5.34091000       1.70062000      -1.10186000       0.20234000
H       -3.80625000      -1.65496000      -2.52002000       0.21327000
C       -3.91158000       2.64409000      -2.26981000      -0.09830000
H       -4.41476000       3.04857000      -3.15800000       0.10307000
H       -2.92188000       2.30940000      -2.59454000       0.11812000
C       -4.69018000      -2.61644000      -0.90467000      -0.10467000
H       -3.82604000      -2.69827000      -0.24183000       0.11847000
H       -5.54412000      -2.39382000      -0.26193000       0.11211000
C       -4.87570000      -3.92605000      -1.64558000      -0.02122000
C       -3.90152000      -4.37880000      -2.54855000      -0.11188000
C       -5.99797000      -4.72858000      -1.40759000      -0.10791000
C       -4.06013000      -5.59818000      -3.20775000      -0.10281000
H       -3.02601000      -3.76662000      -2.75143000       0.11501000
C       -6.15487000      -5.95304000      -2.06171000      -0.10502000
H       -6.75668000      -4.38833000      -0.70598000       0.10888000
C       -5.18661000      -6.38997000      -2.96723000      -0.11195000
H       -3.30136000      -5.93124000      -3.91150000       0.10804000
H       -7.03435000      -6.56137000      -1.86640000       0.10830000
H       -5.30788000      -7.33965000      -3.48175000       0.10797000
C       -3.77441000       3.76148000      -1.25488000      -0.02053000
C       -4.02496000       3.60212000       0.11246000      -0.10964000
C       -3.34086000       5.01250000      -1.72036000      -0.11017000
C       -3.85094000       4.67651000       0.98980000      -0.10283000
H       -4.31945000       2.63886000       0.51705000       0.12131000
C       -3.15151000       6.07944000      -0.84258000      -0.10795000
H       -3.14768000       5.14984000      -2.78307000       0.10729000
C       -3.41036000       5.91475000       0.52153000      -0.11433000
H       -4.05248000       4.53120000       2.04794000       0.11035000
H       -2.81301000       7.03957000      -1.22382000       0.10812000
H       -3.27273000       6.74539000       1.20891000       0.10819000
N        6.23483000      -0.49104000      -1.63139000      -0.24694000
C        6.85936000      -1.78380000      -1.40414000      -0.18252000
C        7.03090000       0.71556000      -1.47873000      -0.18243000
H        7.94367000      -1.66149000      -1.38601000       0.10474000
H        6.54875000      -2.23800000      -0.45071000       0.09594000
H        6.61794000      -2.48714000      -2.21104000       0.09985000
H        6.89002000       1.39333000      -2.33023000       0.09974000
H        6.78338000       1.26708000      -0.55882000       0.09598000
H        8.08804000       0.44719000      -1.44131000       0.10479000
