114
R1TS8majorsNMe2cNMe2.xyz  (col5 = NBO charge)
O       -2.07285000       0.19191000      -2.57894000      -0.29418000
N       -1.49891000      -0.90195000      -2.97038000       0.21643000
C       -0.18994000      -1.08257000      -2.70518000      -0.06739000
C        0.55868000      -0.07325000      -2.03408000      -0.06275000
C        2.01933000      -0.19677000      -1.93199000      -0.01244000
O       -1.90905000       1.48080000      -0.00169000      -0.31720000
C       -0.69767000       1.26947000       0.11696000       0.41805000
C        0.00724000       0.00047000       0.00183000      -0.23085000
C       -0.72222000      -1.24356000       0.11700000       0.41935000
O       -1.93042000      -1.41938000      -0.08299000      -0.32488000
Ni      -3.35458000       0.07922000      -0.74308000       1.34363000
O        0.15714000       2.29014000       0.30528000      -0.27517000
C       -0.43811000       3.61459000       0.35711000      -0.02779000
C       -0.53259000      -3.60105000       0.27894000      -0.02335000
H       -1.25490000      -3.68596000       1.09724000       0.09890000
H        0.19251000       0.93474000      -2.20438000       0.12264000
H        0.20482000      -2.03946000      -3.01030000       0.11451000
H       -1.12612000       3.65620000       1.20506000       0.09994000
H       -1.03160000       3.77723000      -0.54558000       0.10238000
O        0.08757000      -2.29265000       0.33775000      -0.27447000
H       -1.08468000      -3.69121000      -0.66202000       0.09803000
O       -2.16948000      -1.77600000      -3.59188000      -0.26772000
C        2.81536000       0.95927000      -1.87162000      -0.09382000
C        2.67582000      -1.43495000      -1.82472000      -0.09751000
C        4.19557000       0.89375000      -1.75013000      -0.13993000
H        2.33450000       1.93374000      -1.90709000       0.10929000
C        4.05431000      -1.52009000      -1.69969000      -0.13836000
H        2.09472000      -2.35177000      -1.80740000       0.10808000
C        4.86073000      -0.35471000      -1.67430000       0.11092000
H        4.75654000       1.81938000      -1.71051000       0.11183000
H        4.50508000      -2.50107000      -1.61234000       0.11148000
H        1.00299000      -0.00647000       0.42427000       0.13355000
Br      -4.84641000       0.14174000       1.27495000      -0.29713000
C       -7.17066000       0.37173000      -4.56576000      -0.19416000
C       -7.55266000      -0.99248000      -3.98205000      -0.19347000
C       -6.33185000      -1.68088000      -3.35957000      -0.20351000
C       -5.64698000      -0.80639000      -2.29259000      -0.01093000
C       -5.26828000       0.57352000      -2.87928000      -0.01123000
C       -6.50847000       1.24785000      -3.49452000      -0.19998000
H       -6.61806000      -2.63842000      -2.91695000       0.11241000
H       -8.32520000      -0.85285000      -3.21152000       0.09817000
H       -7.99102000      -1.63597000      -4.75469000       0.10478000
H       -6.47009000       0.22860000      -5.40122000       0.09937000
H       -8.05143000       0.88238000      -4.97441000       0.10399000
H       -6.33070000      -0.63486000      -1.45074000       0.10763000
H       -4.49891000       0.41550000      -3.64463000       0.11186000
H       -7.23044000       1.44344000      -2.68690000       0.10106000
H       -6.23994000       2.22145000      -3.91879000       0.10587000
H       -5.59413000      -1.90939000      -4.14248000       0.10386000
N       -4.43997000      -1.43877000      -1.71437000      -0.34514000
N       -4.62863000       1.41642000      -1.83004000      -0.32957000
H       -5.34515000       1.69637000      -1.15740000       0.20167000
H       -3.80377000      -1.69425000      -2.48016000       0.21256000
C       -3.93343000       2.60773000      -2.37083000      -0.09503000
H       -4.47796000       3.00727000      -3.23760000       0.10087000
H       -2.96747000       2.25334000      -2.74301000       0.11557000
C       -4.67863000      -2.62307000      -0.84053000      -0.10139000
H       -3.84532000      -2.65035000      -0.13599000       0.11694000
H       -5.56997000      -2.41425000      -0.24521000       0.11028000
C       -4.78649000      -3.95350000      -1.55359000      -0.04934000
C       -3.76187000      -4.41210000      -2.39293000      -0.10743000
C       -5.88191000      -4.79974000      -1.35947000      -0.09422000
C       -3.83570000      -5.64960000      -3.02444000      -0.11458000
H       -2.89352000      -3.78440000      -2.57897000       0.11266000
C       -5.97028000      -6.04560000      -1.97748000      -0.13865000
H       -6.69053000      -4.48259000      -0.70358000       0.10729000
C       -4.95123000      -6.49951000      -2.84327000       0.09181000
H       -3.01457000      -5.94883000      -3.66495000       0.10894000
H       -6.84231000      -6.65828000      -1.78239000       0.10949000
C       -3.73370000       3.73142000      -1.37507000      -0.04566000
C       -3.98706000       3.62608000      -0.00485000      -0.09512000
C       -3.22012000       4.94736000      -1.84282000      -0.09709000
C       -3.74154000       4.69051000       0.86064000      -0.13472000
H       -4.33497000       2.69331000       0.42815000       0.11982000
C       -2.95121000       6.01305000      -0.98879000      -0.13884000
H       -3.00645000       5.06539000      -2.90431000       0.10608000
C       -3.21698000       5.91524000       0.39646000       0.09251000
H       -3.94663000       4.53919000       1.91347000       0.11165000
H       -2.54081000       6.92257000      -1.41095000       0.10924000
C        0.58244000      -4.62298000       0.39011000      -0.30172000
H        0.16323000      -5.63427000       0.35758000       0.10935000
H        1.29139000      -4.51488000      -0.43789000       0.10249000
H        1.13008000      -4.50210000       1.33014000       0.10606000
C        0.69524000       4.61218000       0.48520000      -0.30160000
H        1.37113000       4.54973000      -0.37468000       0.10312000
H        0.28037000       5.62543000       0.52479000       0.10783000
H        1.27714000       4.43566000       1.39580000       0.10482000
N        6.23803000      -0.43353000      -1.57651000      -0.24669000
C        6.87000000      -1.71983000      -1.33441000      -0.18246000
C        7.01544000       0.77939000      -1.38403000      -0.18245000
H        7.95298000      -1.58822000      -1.30167000       0.10465000
H        6.54949000      -2.17411000      -0.38399000       0.09558000
H        6.64645000      -2.42774000      -2.14227000       0.09982000
H        6.87623000       1.47460000      -2.22138000       0.09979000
H        6.74915000       1.30669000      -0.45486000       0.09562000
H        8.07570000       0.52418000      -1.33998000       0.10465000
N       -5.04600000      -7.72708000      -3.50074000      -0.25698000
C       -3.86383000      -8.26256000      -4.15348000      -0.18225000
C       -6.06146000      -8.67211000      -3.06914000      -0.18205000
H       -4.11111000      -9.22197000      -4.61346000       0.10251000
H       -3.52306000      -7.59468000      -4.95321000       0.09953000
H       -3.02107000      -8.41814000      -3.45890000       0.09156000
H       -5.95982000      -8.95883000      -2.00893000       0.09218000
H       -7.06647000      -8.25766000      -3.21158000       0.09916000
H       -5.99296000      -9.57647000      -3.67788000       0.10260000
N       -2.97498000       6.98501000       1.26401000      -0.25760000
C       -2.14570000       8.08049000       0.79319000      -0.18149000
C       -2.96271000       6.71992000       2.69375000      -0.18183000
H       -2.04828000       8.82459000       1.58696000       0.10314000
H       -1.13244000       7.75887000       0.49356000       0.08932000
H       -2.60780000       8.57919000      -0.06617000       0.09965000
H       -3.94015000       6.35861000       3.03068000       0.10123000
H       -2.20541000       5.97253000       2.98664000       0.09124000
H       -2.75567000       7.64932000       3.22924000       0.10224000
