85
R1TS1minorsCN.xyz  (col5 = NBO charge)
O       -2.43714000       1.30494000       3.87551000      -0.26538000
N       -1.39894000       1.20019000       3.15591000       0.23196000
C       -1.02496000      -0.06454000       2.73706000      -0.11093000
C        0.20391000      -0.25935000       2.07107000      -0.06437000
C        0.85187000      -1.59401000       2.11038000      -0.02074000
O       -1.91632000      -1.44247000      -0.02660000      -0.33566000
C       -0.73533000      -1.20406000      -0.33569000       0.41556000
C        0.00053000      -0.00025000       0.00140000      -0.21876000
C       -0.71346000       1.25899000      -0.02808000       0.41864000
O       -1.93656000       1.38458000       0.15500000      -0.33912000
Ni      -3.30399000      -0.07886000       0.71651000       1.35764000
O        0.01702000      -2.12774000      -0.93515000      -0.26133000
C       -0.62341000      -3.39045000      -1.21642000      -0.11397000
C       -0.56337000       3.60639000      -0.05343000      -0.11329000
H       -1.34582000       3.73496000      -0.80605000       0.09727000
H        0.88415000       0.58581000       2.13428000       0.13147000
H       -1.63757000      -0.85274000       3.14041000       0.11502000
H       -1.49051000      -3.23753000      -1.86144000       0.10184000
H       -0.94744000      -3.86899000      -0.29163000       0.09982000
O        0.07214000       2.31878000      -0.20688000      -0.26125000
H        0.13753000      -3.98971000      -1.71579000       0.10029000
H        0.23355000       4.33531000      -0.19878000       0.09905000
H       -0.99131000       3.68595000       0.94813000       0.10592000
O       -0.72928000       2.20422000       2.82123000      -0.24514000
C        2.25297000      -1.68226000       2.08155000      -0.09127000
C        0.10563000      -2.78490000       2.14641000      -0.10364000
C        2.89491000      -2.91545000       2.09808000      -0.07106000
H        2.84469000      -0.77154000       2.04588000       0.11570000
C        0.73339000      -4.02276000       2.15461000      -0.07357000
H       -0.97597000      -2.75194000       2.11488000       0.11676000
C        2.13655000      -4.09791000       2.13299000      -0.09458000
H        3.97840000      -2.97173000       2.07974000       0.11917000
H        0.13922000      -4.93070000       2.15996000       0.11869000
H        1.02763000       0.03121000      -0.34317000       0.13205000
Br      -4.89807000      -0.20338000      -1.18001000      -0.27884000
C       -7.11594000      -0.34554000       4.57981000      -0.19408000
C       -7.49624000       1.00409000       3.96302000      -0.19336000
C       -6.26833000       1.69083000       3.35293000      -0.20412000
C       -5.56364000       0.79677000       2.31727000      -0.01163000
C       -5.18240000      -0.56421000       2.93716000      -0.01313000
C       -6.42637000      -1.24085000       3.54111000      -0.20020000
H       -6.55596000       2.63513000       2.88365000       0.11276000
H       -8.25275000       0.84552000       3.18062000       0.09906000
H       -7.95307000       1.65770000       4.71545000       0.10660000
H       -6.43395000      -0.18194000       5.42643000       0.10041000
H       -8.00052000      -0.85582000       4.97925000       0.10575000
H       -6.23299000       0.60486000       1.46880000       0.11104000
H       -4.43179000      -0.38193000       3.71708000       0.11213000
H       -7.12959000      -1.46312000       2.72415000       0.10287000
H       -6.16048000      -2.19944000       3.99919000       0.10600000
H       -5.54764000       1.94299000       4.14359000       0.10606000
N       -4.34405000       1.41288000       1.74403000      -0.35100000
N       -4.51012000      -1.40780000       1.89989000      -0.34223000
H       -5.21825000      -1.67021000       1.20992000       0.20592000
H       -3.72270000       1.64809000       2.52844000       0.21197000
C       -3.88501000      -2.62472000       2.45622000      -0.09342000
H       -4.52663000      -3.06449000       3.23093000       0.10870000
H       -2.97201000      -2.30979000       2.97191000       0.10224000
C       -4.57500000       2.62567000       0.90742000      -0.10251000
H       -3.75824000       2.66136000       0.18529000       0.12058000
H       -5.48778000       2.45626000       0.33226000       0.11129000
C       -4.63018000       3.93874000       1.66386000      -0.02492000
C       -3.62060000       4.29150000       2.57296000      -0.11363000
C       -5.66874000       4.84649000       1.42244000      -0.10822000
C       -3.66446000       5.52152000       3.23109000      -0.10079000
H       -2.80254000       3.60882000       2.78825000       0.11621000
C       -5.70831000       6.08037000       2.07569000      -0.10456000
H       -6.45466000       4.58278000       0.71761000       0.10841000
C       -4.70574000       6.42032000       2.98549000      -0.11093000
H       -2.87910000       5.77676000       3.93773000       0.10935000
H       -6.52386000       6.77095000       1.87702000       0.10853000
H       -4.73547000       7.37730000       3.49973000       0.10834000
C       -3.56560000      -3.71748000       1.45393000      -0.02151000
C       -3.96241000      -3.68638000       0.11397000      -0.10675000
C       -2.87629000      -4.84393000       1.93087000      -0.11267000
C       -3.69437000      -4.77417000      -0.72301000      -0.10035000
H       -4.44058000      -2.80842000      -0.30935000       0.11897000
C       -2.59387000      -5.92100000       1.09133000      -0.10710000
H       -2.56585000      -4.87932000       2.97406000       0.10792000
C       -3.01168000      -5.89179000      -0.24326000      -0.11197000
H       -4.01344000      -4.73239000      -1.76094000       0.11132000
H       -2.06087000      -6.78488000       1.47990000       0.11022000
H       -2.80297000      -6.73213000      -0.89956000       0.11022000
C        2.78584000      -5.37518000       2.13543000       0.16130000
N        3.30677000      -6.41538000       2.13482000      -0.17902000
