106
R1TS8minorcNMe2.xyz  (col5 = NBO charge)
O       -2.39536000       1.29454000       3.89475000      -0.26892000
N       -1.36442000       1.18482000       3.16272000       0.23084000
C       -1.00467000      -0.07710000       2.73091000      -0.11185000
C        0.22228000      -0.27778000       2.05831000      -0.05846000
C        0.87296000      -1.61216000       2.09047000      -0.03903000
O       -1.91782000      -1.43729000      -0.02817000      -0.33579000
C       -0.73388000      -1.20556000      -0.33196000       0.41772000
C        0.00104000       0.00047000      -0.00228000      -0.22053000
C       -0.71302000       1.25903000      -0.02638000       0.41810000
O       -1.93746000       1.38015000       0.15482000      -0.33999000
Ni      -3.29266000      -0.08258000       0.74086000       1.36077000
O        0.02263000      -2.13910000      -0.91021000      -0.26728000
C       -0.59664000      -3.43484000      -1.12417000      -0.03048000
C       -0.56088000       3.61979000      -0.01023000      -0.02482000
H       -1.29044000       3.76611000      -0.81367000       0.09642000
H        0.90285000       0.56727000       2.12137000       0.12979000
H       -1.61959000      -0.86413000       3.13302000       0.11465000
H       -1.39018000      -3.31958000      -1.86764000       0.09892000
H       -1.05993000      -3.76207000      -0.19363000       0.10443000
O        0.06981000       2.32262000      -0.19285000      -0.26791000
H       -1.09007000       3.60925000       0.94506000       0.10721000
O       -0.69042000       2.18912000       2.83077000      -0.24909000
C        2.27187000      -1.69588000       2.01269000      -0.09169000
C        0.13430000      -2.80489000       2.16345000      -0.10357000
C        2.91592000      -2.93245000       2.02013000      -0.10278000
H        2.85649000      -0.78144000       1.94546000       0.11044000
C        0.77554000      -4.04146000       2.16219000      -0.10365000
H       -0.94850000      -2.77534000       2.16963000       0.11285000
C        2.16961000      -4.11137000       2.09429000      -0.10324000
H        4.00022000      -2.97552000       1.96469000       0.11074000
H        0.17725000      -4.94764000       2.19425000       0.11040000
H        2.67030000      -5.07584000       2.09552000       0.10976000
H        1.02837000       0.03118000      -0.34575000       0.13082000
Br      -4.92726000      -0.20369000      -1.13302000      -0.28401000
C       -7.07649000      -0.32280000       4.63848000      -0.19396000
C       -7.44994000       1.03054000       4.02546000      -0.19329000
C       -6.22106000       1.70652000       3.40560000      -0.20400000
C       -5.53311000       0.80668000       2.36332000      -0.01143000
C       -5.15637000      -0.55661000       2.98112000      -0.01327000
C       -6.40176000      -1.22297000       3.59432000      -0.19997000
H       -6.50207000       2.65434000       2.93969000       0.11296000
H       -8.21391000       0.87836000       3.24889000       0.09860000
H       -7.89586000       1.68753000       4.78190000       0.10563000
H       -6.38642000      -0.16492000       5.47976000       0.10008000
H       -7.96230000      -0.82591000       5.04501000       0.10481000
H       -6.21309000       0.61875000       1.52230000       0.11052000
H       -4.39998000      -0.37843000       3.75639000       0.11209000
H       -7.11279000      -1.43890000       2.78234000       0.10236000
H       -6.14042000      -2.18402000       4.04963000       0.10573000
H       -5.49116000       1.95097000       4.19023000       0.10575000
N       -4.31667000       1.41388000       1.77714000      -0.35181000
N       -4.49587000      -1.40620000       1.94256000      -0.34235000
H       -5.20868000      -1.66471000       1.25591000       0.20514000
H       -3.68576000       1.64483000       2.55541000       0.21194000
C       -3.87849000      -2.62884000       2.49835000      -0.08941000
H       -4.52832000      -3.06654000       3.26819000       0.10510000
H       -2.96899000      -2.31573000       3.02258000       0.10042000
C       -4.54918000       2.63308000       0.94589000      -0.09934000
H       -3.74985000       2.65231000       0.20430000       0.11869000
H       -5.47813000       2.47706000       0.39243000       0.10942000
C       -4.57207000       3.94233000       1.70571000      -0.05302000
C       -3.54616000       4.29619000       2.59389000      -0.10846000
C       -5.59901000       4.87006000       1.50827000      -0.09494000
C       -3.55194000       5.51931000       3.25718000      -0.11527000
H       -2.73096000       3.60851000       2.80462000       0.11514000
C       -5.61670000       6.10152000       2.15978000      -0.13861000
H       -6.41555000       4.62591000       0.83101000       0.10664000
C       -4.58162000       6.46543000       3.04889000       0.09302000
H       -2.74078000       5.72966000       3.94378000       0.11040000
H       -6.44609000       6.77297000       1.97247000       0.10934000
C       -3.55384000      -3.70951000       1.48750000      -0.04805000
C       -3.95063000      -3.68535000       0.14794000      -0.09205000
C       -2.83964000      -4.83055000       1.92858000      -0.09804000
C       -3.65654000      -4.74092000      -0.71244000      -0.13405000
H       -4.44839000      -2.81717000      -0.27333000       0.11783000
C       -2.52034000      -5.88428000       1.07765000      -0.13924000
H       -2.51121000      -4.88279000       2.96578000       0.10655000
C       -2.93099000      -5.87063000      -0.27618000       0.09602000
H       -3.97382000      -4.65285000      -1.74426000       0.11226000
H       -1.95417000      -6.71763000       1.47613000       0.11002000
C        0.49608000      -4.38322000      -1.57229000      -0.30306000
H        1.26446000      -4.46798000      -0.79739000       0.10778000
H        0.06425000      -5.37507000      -1.74718000       0.10683000
H        0.96692000      -4.03909000      -2.49883000       0.10573000
C        0.54461000       4.65576000      -0.03835000      -0.30216000
H        0.11332000       5.65428000       0.09061000       0.10934000
H        1.25447000       4.47707000       0.77538000       0.10603000
H        1.08703000       4.63060000      -0.98923000       0.10398000
N       -2.62200000      -6.91988000      -1.13859000      -0.25618000
C       -2.83582000      -6.73911000      -2.56533000      -0.18174000
C       -1.63969000      -7.90443000      -0.71796000      -0.18200000
H       -2.55076000      -7.65352000      -3.08975000       0.10345000
H       -3.89392000      -6.55277000      -2.78071000       0.10126000
H       -2.25165000      -5.90269000      -2.98391000       0.09192000
H       -0.65949000      -7.45696000      -0.48185000       0.09130000
H       -1.98447000      -8.44959000       0.16885000       0.09949000
H       -1.49891000      -8.63597000      -1.51622000       0.10416000
N       -4.57026000       7.70614000       3.68737000      -0.25672000
C       -5.77441000       8.51796000       3.65343000      -0.18192000
C       -3.65431000       7.91051000       4.79739000      -0.18226000
H       -5.59620000       9.44835000       4.19725000       0.10258000
H       -6.03493000       8.78657000       2.62289000       0.09918000
H       -6.64649000       8.01447000       4.10384000       0.09190000
H       -3.81528000       7.19898000       5.62428000       0.09279000
H       -2.61336000       7.81450000       4.46769000       0.09947000
H       -3.78125000       8.92371000       5.18527000       0.10224000
