90
R1TS8major.xyz  (col5 = NBO charge)
O       -2.20207000       0.17713000      -2.58187000      -0.28585000
N       -1.63610000      -0.91412000      -2.97060000       0.22404000
C       -0.30961000      -1.08915000      -2.74268000      -0.07222000
C        0.44760000      -0.07554000      -2.11695000      -0.04381000
C        1.91704000      -0.17871000      -2.04286000      -0.04378000
O       -1.90807000       1.48711000       0.00009000      -0.32126000
C       -0.69458000       1.27099000       0.11299000       0.41575000
C       -0.00039000       0.00048000       0.00656000      -0.23261000
C       -0.71935000      -1.24455000       0.11401000       0.41721000
O       -1.92973000      -1.42624000      -0.08254000      -0.32861000
Ni      -3.37566000       0.07490000      -0.64035000       1.34258000
O        0.16474000       2.28990000       0.27722000      -0.27405000
C       -0.41904000       3.62005000       0.32346000      -0.02617000
C       -0.52053000      -3.60370000       0.26532000      -0.02290000
H       -1.23478000      -3.68877000       1.09060000       0.09921000
H        0.05402000       0.92708000      -2.24622000       0.12352000
H        0.07080000      -2.05566000      -3.03540000       0.11668000
H       -1.09229000       3.67691000       1.18217000       0.10041000
H       -1.02509000       3.77624000      -0.57254000       0.09987000
O        0.09554000      -2.29264000       0.31633000      -0.27393000
H       -1.08053000      -3.69622000      -0.67097000       0.09697000
O       -2.31255000      -1.80281000      -3.55436000      -0.25458000
C        2.68466000       0.99809000      -2.05193000      -0.08968000
C        2.57597000      -1.41508000      -1.92591000      -0.09338000
C        4.07489000       0.94124000      -1.97650000      -0.10443000
H        2.18058000       1.95921000      -2.10873000       0.11073000
C        3.96533000      -1.47022000      -1.84721000      -0.10357000
H        1.99654000      -2.33065000      -1.86569000       0.10987000
C        4.72023000      -0.29383000      -1.87788000      -0.09946000
H        4.65431000       1.86019000      -1.99113000       0.11103000
H        4.46132000      -2.43256000      -1.75522000       0.11073000
H        5.80399000      -0.33997000      -1.81678000       0.11050000
H        1.01496000      -0.00716000       0.37856000       0.13350000
Br      -4.75130000       0.11712000       1.45129000      -0.29214000
C       -7.37696000       0.48786000      -4.25844000      -0.19428000
C       -7.74650000      -0.88417000      -3.68531000      -0.19352000
C       -6.50526000      -1.60180000      -3.14072000      -0.20366000
C       -5.75534000      -0.76014000      -2.09129000      -0.01139000
C       -5.38950000       0.62809000      -2.66794000      -0.01076000
C       -6.64997000       1.33152000      -3.20338000      -0.20016000
H       -6.78432000      -2.56433000      -2.70484000       0.11247000
H       -8.47696000      -0.75282000      -2.87357000       0.09871000
H       -8.23151000      -1.50528000      -4.44801000       0.10549000
H       -6.72218000       0.35544000      -5.13187000       0.09953000
H       -8.27071000       1.01780000      -4.60966000       0.10482000
H       -6.39282000      -0.59903000      -1.21208000       0.10837000
H       -4.66257000       0.47843000      -3.47515000       0.11181000
H       -7.32713000       1.51758000      -2.35580000       0.10156000
H       -6.38988000       2.31137000      -3.61877000       0.10603000
H       -5.81178000      -1.82277000      -3.96524000       0.10373000
N       -4.52743000      -1.41886000      -1.58741000      -0.34367000
N       -4.68732000       1.43997000      -1.63418000      -0.33090000
H       -5.36648000       1.71223000      -0.92093000       0.20275000
H       -3.93676000      -1.67353000      -2.38792000       0.21110000
C       -4.00129000       2.63504000      -2.17813000      -0.09780000
H       -4.55196000       3.03244000      -3.04099000       0.10349000
H       -3.03274000       2.29277000      -2.55440000       0.11706000
C       -4.73178000      -2.60649000      -0.71298000      -0.10471000
H       -3.83840000      -2.67937000      -0.08936000       0.11906000
H       -5.55567000      -2.37368000      -0.03583000       0.11241000
C       -4.95111000      -3.92503000      -1.42743000      -0.02157000
C       -4.00879000      -4.39879000      -2.35296000      -0.11163000
C       -6.07146000      -4.71520000      -1.14348000      -0.10757000
C       -4.19643000      -5.62586000      -2.98978000      -0.10278000
H       -3.13407000      -3.79801000      -2.58970000       0.11395000
C       -6.25754000      -5.94748000      -1.77483000      -0.10476000
H       -6.80531000      -4.35940000      -0.42343000       0.10909000
C       -5.32107000      -6.40483000      -2.70343000      -0.11147000
H       -3.46190000      -5.97523000      -3.71104000       0.10819000
H       -7.13484000      -6.54618000      -1.54354000       0.10856000
H       -5.46522000      -7.36078000      -3.20001000       0.10821000
C       -3.79913000       3.76334000      -1.18604000      -0.02040000
C       -3.99555000       3.62978000       0.19274000      -0.10932000
C       -3.35772000       4.99699000      -1.68898000      -0.11009000
C       -3.76099000       4.71289000       1.04499000      -0.10248000
H       -4.29025000       2.67862000       0.62502000       0.12098000
C       -3.10691000       6.07194000      -0.83680000      -0.10790000
H       -3.20518000       5.11370000      -2.76071000       0.10737000
C       -3.31204000       5.93339000       0.53948000      -0.11447000
H       -3.91977000       4.58776000       2.11287000       0.11055000
H       -2.76284000       7.01806000      -1.24686000       0.10826000
H       -3.12688000       6.77052000       1.20751000       0.10834000
C        0.59858000      -4.62180000       0.36873000      -0.30193000
H        0.18216000      -5.63437000       0.34368000       0.10974000
H        1.29963000      -4.51521000      -0.46610000       0.10263000
H        1.15425000      -4.49616000       1.30322000       0.10674000
C        0.72468000       4.60892000       0.42113000      -0.30188000
H        1.38570000       4.53076000      -0.44895000       0.10275000
H        0.31909000       5.62555000       0.45814000       0.10956000
H        1.31974000       4.43602000       1.32361000       0.10565000
