104
R1TS1majorsOMecNMe2.xyz  (col5 = NBO charge)
O       -2.14180000       0.19489000      -2.57789000      -0.28997000
N       -1.57597000      -0.89861000      -2.97254000       0.21889000
C       -0.25977000      -1.08382000      -2.72251000      -0.07196000
C        0.49783000      -0.07618000      -2.07192000      -0.05968000
C        1.96383000      -0.19738000      -1.99574000      -0.01569000
O       -1.90752000       1.48542000       0.00306000      -0.31739000
C       -0.69616000       1.27035000       0.11309000       0.41602000
C        0.00379000       0.00034000      -0.00092000      -0.23579000
C       -0.72397000      -1.24162000       0.12508000       0.41831000
O       -1.92826000      -1.42668000      -0.08920000      -0.32455000
Ni      -3.37127000       0.07214000      -0.68743000       1.34087000
O        0.16267000       2.29066000       0.28860000      -0.27006000
C       -0.43099000       3.60608000       0.34957000      -0.11403000
C       -0.55282000      -3.57894000       0.36430000      -0.11275000
H       -1.30235000      -3.64307000       1.15753000       0.09958000
H        0.12408000       0.93109000      -2.22683000       0.12192000
H        0.12520000      -2.04600000      -3.02391000       0.11580000
H       -1.12946000       3.67409000       1.18552000       0.10211000
H       -0.97664000       3.83011000      -0.56991000       0.09956000
O        0.08440000      -2.28732000       0.37577000      -0.26850000
H        0.40693000       4.29052000       0.48441000       0.09674000
H        0.24994000      -4.29674000       0.53490000       0.09823000
H       -1.03814000      -3.75883000      -0.59926000       0.09774000
O       -2.25093000      -1.77269000      -3.58335000      -0.26085000
C        2.75470000       0.95927000      -2.01590000      -0.06338000
C        2.61317000      -1.44067000      -1.85832000      -0.09845000
C        4.14571000       0.89651000      -1.93864000      -0.16212000
H        2.27160000       1.93023000      -2.08669000       0.10772000
C        3.99365000      -1.51876000      -1.77663000      -0.12566000
H        2.02519000      -2.34989000      -1.78520000       0.11068000
C        4.77411000      -0.35063000      -1.82280000       0.17147000
H        4.72163000       1.81399000      -1.96629000       0.11440000
H        4.50033000      -2.47240000      -1.66876000       0.11620000
H        1.00782000      -0.00648000       0.40157000       0.13305000
Br      -4.77517000       0.07880000       1.38791000      -0.29412000
C       -7.27270000       0.60236000      -4.38737000      -0.19423000
C       -7.66522000      -0.78175000      -3.86059000      -0.19343000
C       -6.44429000      -1.52307000      -3.30164000      -0.20377000
C       -5.71744000      -0.71576000      -2.20891000      -0.01130000
C       -5.32762000       0.68388000      -2.74198000      -0.01065000
C       -6.56801000       1.41156000      -3.29131000      -0.20004000
H       -6.74106000      -2.49512000      -2.90164000       0.11354000
H       -8.41685000      -0.66646000      -3.06572000       0.09825000
H       -8.13357000      -1.37956000      -4.65204000       0.10496000
H       -6.59583000       0.48833000      -5.24651000       0.09926000
H       -8.15363000       1.14775000      -4.74784000       0.10411000
H       -6.37851000      -0.57333000      -1.34378000       0.10752000
H       -4.58207000       0.54675000      -3.53441000       0.11154000
H       -7.26604000       1.57987000      -2.45699000       0.10121000
H       -6.28911000       2.40046000      -3.67174000       0.10590000
H       -5.72940000      -1.72615000      -4.11234000       0.10345000
N       -4.50610000      -1.39270000      -1.68967000      -0.34340000
N       -4.64514000       1.46577000      -1.67437000      -0.32999000
H       -5.33876000       1.73113000      -0.97259000       0.20240000
H       -3.89715000      -1.63361000      -2.48134000       0.21151000
C       -3.93152000       2.66870000      -2.17076000      -0.09371000
H       -4.43378000       3.06770000      -3.06215000       0.10092000
H       -2.94348000       2.32798000      -2.49471000       0.11431000
C       -4.73005000      -2.60324000      -0.84892000      -0.10156000
H       -3.83081000      -2.70731000      -0.23790000       0.11575000
H       -5.54115000      -2.36991000      -0.15608000       0.11136000
C       -4.98978000      -3.89027000      -1.60038000      -0.05027000
C       -4.06495000      -4.38461000      -2.53011000      -0.09736000
C       -6.13606000      -4.65539000      -1.36709000      -0.09422000
C       -4.28438000      -5.57647000      -3.21313000      -0.13486000
H       -3.15754000      -3.82253000      -2.73960000       0.11300000
C       -6.37000000      -5.85509000      -2.03608000      -0.13852000
H       -6.86922000      -4.30892000      -0.64112000       0.10752000
C       -5.45355000      -6.34168000      -2.99430000       0.09883000
H       -3.53487000      -5.90823000      -3.92175000       0.10945000
H       -7.27417000      -6.40640000      -1.80735000       0.10964000
C       -3.79977000       3.78292000      -1.15399000      -0.04850000
C       -3.98927000       3.61492000       0.22112000      -0.09619000
C       -3.42398000       5.05583000      -1.60032000      -0.09671000
C       -3.81183000       4.67206000       1.11136000      -0.13660000
H       -4.25231000       2.64550000       0.63275000       0.12034000
C       -3.22434000       6.11748000      -0.72245000      -0.13966000
H       -3.28165000       5.22976000      -2.66607000       0.10577000
C       -3.40467000       5.94968000       0.66992000       0.09668000
H       -3.98540000       4.47890000       2.16313000       0.11179000
H       -2.94036000       7.07976000      -1.13148000       0.10929000
O        6.11904000      -0.53905000      -1.73961000      -0.27359000
C        6.96453000       0.60196000      -1.76745000      -0.11076000
H        6.76224000       1.27415000      -0.92270000       0.08969000
H        7.98412000       0.22054000      -1.68900000       0.10013000
H        6.85703000       1.16047000      -2.70710000       0.08962000
N       -5.69528000      -7.51978000      -3.70139000      -0.25532000
C       -4.61016000      -8.11261000      -4.46425000      -0.18193000
C       -6.75859000      -8.39992000      -3.24809000      -0.18198000
H       -4.96836000      -9.02290000      -4.95018000       0.10263000
H       -4.27060000      -7.43223000      -5.25394000       0.09960000
H       -3.73778000      -8.37248000      -3.84142000       0.09202000
H       -6.61365000      -8.75195000      -2.21298000       0.09240000
H       -7.73125000      -7.89655000      -3.30027000       0.09920000
H       -6.80756000      -9.27197000      -3.90393000       0.10270000
N       -3.17801000       6.99580000       1.56622000      -0.25670000
C       -3.05577000       8.34581000       1.04306000      -0.18198000
C       -3.64683000       6.84971000       2.93502000      -0.18212000
H       -2.89111000       9.03849000       1.87143000       0.10289000
H       -2.19219000       8.42833000       0.37246000       0.09824000
H       -3.94971000       8.67569000       0.48747000       0.09226000
H       -4.73558000       6.68972000       3.00191000       0.09330000
H       -3.15122000       6.00577000       3.42821000       0.09989000
H       -3.39495000       7.75099000       3.49845000       0.10218000
