96
R1TS8minorsNO2cNO2.xyz  (col5 = NBO charge)
O       -2.44945000       1.30000000       3.87847000      -0.26619000
N       -1.40500000       1.19719000       3.16555000       0.23204000
C       -1.02753000      -0.06708000       2.74961000      -0.10852000
C        0.20068000      -0.26060000       2.08619000      -0.06308000
C        0.84761000      -1.59449000       2.11642000      -0.01798000
O       -1.91840000      -1.44129000      -0.02937000      -0.34061000
C       -0.73057000      -1.20969000      -0.33015000       0.41636000
C       -0.00207000       0.00033000      -0.00509000      -0.21834000
C       -0.71206000       1.26112000      -0.02467000       0.41788000
O       -1.93804000       1.38632000       0.15531000      -0.34193000
Ni      -3.30306000      -0.07113000       0.69536000       1.35946000
O        0.03478000      -2.14304000      -0.89137000      -0.26558000
C       -0.56859000      -3.44737000      -1.11771000      -0.02977000
C       -0.54349000       3.62453000      -0.01666000      -0.02427000
H       -1.27018000       3.76562000      -0.82357000       0.09704000
H        0.87903000       0.58634000       2.14006000       0.13242000
H       -1.64635000      -0.85466000       3.14582000       0.11529000
H       -1.31789000      -3.34251000      -1.90743000       0.10020000
H       -1.07957000      -3.74952000      -0.20427000       0.09902000
O        0.07575000       2.31837000      -0.18365000      -0.26553000
H       -1.07309000       3.62656000       0.93895000       0.10517000
O       -0.73820000       2.20349000       2.83508000      -0.24258000
C        2.24775000      -1.68456000       2.04567000      -0.08777000
C        0.09886000      -2.78314000       2.18637000      -0.10182000
C        2.88921000      -2.91891000       2.05457000      -0.08681000
H        2.83942000      -0.77563000       1.98267000       0.11695000
C        0.72233000      -4.02325000       2.18635000      -0.09017000
H       -0.98289000      -2.74452000       2.18848000       0.11481000
C        2.11397000      -4.07518000       2.12327000       0.02997000
H        3.96797000      -3.00002000       2.00480000       0.12876000
H        0.15081000      -4.94228000       2.21482000       0.12631000
H        1.02815000       0.03172000      -0.33963000       0.13229000
Br      -4.91144000      -0.13775000      -1.18974000      -0.27647000
C       -7.07424000      -0.32703000       4.61443000      -0.19411000
C       -7.45540000       1.02756000       4.00972000      -0.19347000
C       -6.23156000       1.70609000       3.38283000      -0.20394000
C       -5.55216000       0.81220000       2.33061000      -0.01156000
C       -5.17671000      -0.55987000       2.93091000      -0.01320000
C       -6.41390000      -1.22595000       3.55971000      -0.20051000
H       -6.52077000       2.65474000       2.92196000       0.11116000
H       -8.22612000       0.87885000       3.23961000       0.09963000
H       -7.89346000       1.68156000       4.77247000       0.10765000
H       -6.37465000      -0.17233000       5.44808000       0.10104000
H       -7.95500000      -0.83099000       5.02916000       0.10680000
H       -6.23524000       0.63671000       1.48948000       0.11142000
H       -4.40421000      -0.39596000       3.69323000       0.11288000
H       -7.13613000      -1.44241000       2.75790000       0.10317000
H       -6.14639000      -2.18621000       4.01330000       0.10615000
H       -5.49615000       1.94760000       4.16313000       0.10644000
N       -4.33157000       1.41972000       1.74847000      -0.35159000
N       -4.54340000      -1.39734000       1.86305000      -0.34289000
H       -5.26840000      -1.60916000       1.17305000       0.20576000
H       -3.69943000       1.63710000       2.52950000       0.21185000
C       -3.95826000      -2.65283000       2.37082000      -0.09734000
H       -4.62843000      -3.12798000       3.09967000       0.11259000
H       -3.05311000      -2.38641000       2.92680000       0.10568000
C       -4.55658000       2.63719000       0.92352000      -0.10690000
H       -3.74188000       2.67812000       0.19822000       0.12484000
H       -5.47211000       2.48175000       0.34950000       0.11404000
C       -4.59489000       3.94852000       1.68335000      -0.00011000
C       -3.59443000       4.27727000       2.61393000      -0.11077000
C       -5.60611000       4.88204000       1.41392000      -0.10423000
C       -3.61279000       5.50611000       3.26760000      -0.08703000
H       -2.79743000       3.57806000       2.84991000       0.12181000
C       -5.63541000       6.11732000       2.05571000      -0.09227000
H       -6.38250000       4.63766000       0.69348000       0.11456000
C       -4.63416000       6.41081000       2.97933000       0.02712000
H       -2.85084000       5.77047000       3.99044000       0.12686000
H       -6.41325000       6.84459000       1.85844000       0.12833000
C       -3.62672000      -3.69202000       1.31865000       0.00213000
C       -4.05240000      -3.60676000      -0.01147000      -0.10277000
C       -2.88815000      -4.81585000       1.72925000      -0.10846000
C       -3.75525000      -4.62647000      -0.91412000      -0.08428000
H       -4.56574000      -2.72683000      -0.38526000       0.12414000
C       -2.55543000      -5.82570000       0.83297000      -0.09396000
H       -2.56088000      -4.89573000       2.76367000       0.11365000
C       -3.00128000      -5.71423000      -0.48488000       0.02302000
H       -4.07259000      -4.56577000      -1.94804000       0.12849000
H       -1.96014000      -6.68087000       1.12964000       0.12810000
C        0.54039000      -4.41087000      -1.48631000      -0.30311000
H        1.28834000      -4.45342000      -0.68890000       0.10563000
H        0.12382000      -5.41571000      -1.61582000       0.11167000
H        1.03513000      -4.11293000      -2.41555000       0.10821000
C        0.57080000       4.65020000      -0.05603000      -0.30266000
H        0.14851000       5.65396000       0.06008000       0.11007000
H        1.27897000       4.47655000       0.76003000       0.10691000
H        1.11220000       4.60868000      -1.00650000       0.10562000
N        2.77808000      -5.38905000       2.11415000       0.25134000
O        2.05920000      -6.38812000       2.12795000      -0.19420000
O        4.00753000      -5.40600000       2.09075000      -0.19224000
N       -2.61348000      -6.74369000      -1.46078000       0.25063000
O       -3.17255000      -6.73357000      -2.55565000      -0.19285000
O       -1.73678000      -7.54206000      -1.12454000      -0.19627000
N       -4.65688000       7.71078000       3.66832000       0.25081000
O       -5.57618000       8.48469000       3.39950000      -0.19872000
O       -3.75553000       7.94804000       4.47234000      -0.19722000
