98
R1TS8majorsOMecNO2.xyz  (col5 = NBO charge)
O       -2.16609000       0.18300000      -2.57475000      -0.29105000
N       -1.59428000      -0.91079000      -2.96360000       0.21926000
C       -0.27390000      -1.08007000      -2.73763000      -0.06552000
C        0.48570000      -0.06285000      -2.10587000      -0.05624000
C        1.94831000      -0.16463000      -2.03070000      -0.00433000
O       -1.90863000       1.48779000      -0.00738000      -0.32315000
C       -0.69623000       1.26800000       0.12357000       0.41627000
C        0.00054000       0.00027000       0.00178000      -0.23269000
C       -0.71733000      -1.24482000       0.11106000       0.41787000
O       -1.93046000      -1.42344000      -0.07792000      -0.33072000
Ni      -3.36209000       0.06893000      -0.68859000       1.34448000
O        0.16296000       2.27953000       0.33154000      -0.27276000
C       -0.41998000       3.60676000       0.40988000      -0.02680000
C       -0.51423000      -3.60506000       0.27637000      -0.02276000
H       -1.22156000      -3.68668000       1.10809000       0.09878000
H        0.09157000       0.93918000      -2.23982000       0.12342000
H        0.11381000      -2.04068000      -3.04031000       0.11685000
H       -1.06729000       3.64510000       1.29016000       0.09825000
H       -1.04734000       3.76511000      -0.46934000       0.09878000
O        0.09701000      -2.29120000       0.31369000      -0.27266000
H       -1.08053000      -3.70633000      -0.65508000       0.09620000
O       -2.27659000      -1.80257000      -3.54551000      -0.26358000
C        2.71842000       1.00721000      -1.99208000      -0.09281000
C        2.61984000      -1.40152000      -1.94255000      -0.10041000
C        4.10827000       0.96655000      -1.90344000      -0.15068000
H        2.21783000       1.97146000      -2.02131000       0.11001000
C        3.99989000      -1.45774000      -1.85084000      -0.12454000
H        2.05076000      -2.32522000      -1.91790000       0.11022000
C        4.75907000      -0.27387000      -1.83645000       0.17553000
H        4.66760000       1.89430000      -1.88382000       0.11554000
H        4.52370000      -2.40553000      -1.78110000       0.11684000
H        1.01248000      -0.00797000       0.38266000       0.13395000
Br      -4.81213000       0.15929000       1.35162000      -0.29208000
C       -7.32055000       0.14141000      -4.40381000      -0.19422000
C       -7.65856000      -1.20466000      -3.75507000      -0.19364000
C       -6.40415000      -1.84321000      -3.14678000      -0.20304000
C       -5.70425000      -0.91348000      -2.13895000      -0.01104000
C       -5.37469000       0.45135000      -2.78410000      -0.01167000
C       -6.64607000       1.07478000      -3.38962000      -0.20024000
H       -6.65954000      -2.78653000      -2.65488000       0.10990000
H       -8.40890000      -1.04975000      -2.96619000       0.09921000
H       -8.10684000      -1.88635000      -4.48748000       0.10646000
H       -6.64275000      -0.02173000      -5.25398000       0.10021000
H       -8.22288000       0.61811000      -4.80491000       0.10578000
H       -6.36168000      -0.72648000      -1.27985000       0.10898000
H       -4.62059000       0.28583000      -3.56278000       0.11280000
H       -7.34860000       1.29170000      -2.57051000       0.10180000
H       -6.41138000       2.03288000      -3.86583000       0.10597000
H       -5.68829000      -2.08975000      -3.94435000       0.10450000
N       -4.46307000      -1.49878000      -1.58288000      -0.34555000
N       -4.72822000       1.33997000      -1.77419000      -0.33040000
H       -5.43162000       1.60153000      -1.08050000       0.20218000
H       -3.84355000      -1.75574000      -2.36151000       0.21262000
C       -4.10549000       2.53871000      -2.36809000      -0.10321000
H       -4.74259000       2.96233000      -3.15697000       0.10757000
H       -3.18405000       2.19999000      -2.85190000       0.12117000
C       -4.65391000      -2.65204000      -0.66657000      -0.10826000
H       -3.81230000      -2.64264000       0.02932000       0.12433000
H       -5.54409000      -2.45439000      -0.06685000       0.11391000
C       -4.72094000      -4.01500000      -1.32510000       0.00283000
C       -3.72264000      -4.42551000      -2.22499000      -0.11005000
C       -5.74717000      -4.91219000      -0.99684000      -0.10403000
C       -3.75461000      -5.69532000      -2.79236000      -0.08884000
H       -2.92375000      -3.74324000      -2.50148000       0.12050000
C       -5.79211000      -6.18898000      -1.55135000      -0.08976000
H       -6.52212000      -4.60629000      -0.29890000       0.11489000
C       -4.79127000      -6.56245000      -2.44623000       0.02670000
H       -2.99582000      -6.02245000      -3.49254000       0.12568000
H       -6.58155000      -6.88924000      -1.30773000       0.12618000
C       -3.78202000       3.64965000      -1.39221000       0.00456000
C       -4.03962000       3.58121000      -0.01812000      -0.10512000
C       -3.17584000       4.80499000      -1.91672000      -0.10544000
C       -3.69008000       4.63993000       0.81884000      -0.08532000
H       -4.45336000       2.68456000       0.43280000       0.12564000
C       -2.79250000       5.85453000      -1.09173000      -0.09439000
H       -2.98240000       4.87000000      -2.98503000       0.11362000
C       -3.05349000       5.75261000       0.27612000       0.02056000
H       -3.86950000       4.58872000       1.88596000       0.12752000
H       -2.29397000       6.73407000      -1.47996000       0.12569000
C        0.60898000      -4.61858000       0.37743000      -0.30206000
H        0.19611000      -5.63267000       0.35944000       0.11001000
H        1.30401000      -4.51311000      -0.46239000       0.10331000
H        1.16996000      -4.48681000       1.30775000       0.10740000
C        0.71083000       4.61216000       0.48815000      -0.30305000
H        1.35112000       4.54814000      -0.39844000       0.10301000
H        0.29198000       5.62354000       0.53944000       0.11090000
H        1.32885000       4.44462000       1.37573000       0.10710000
O        6.10340000      -0.44113000      -1.74759000      -0.27154000
C        6.93187000       0.71418000      -1.71440000      -0.11089000
H        6.70946000       1.34287000      -0.84211000       0.09037000
H        7.95586000       0.34433000      -1.64198000       0.10081000
H        6.82465000       1.31167000      -2.62938000       0.09009000
N       -4.82890000      -7.90698000      -3.04086000       0.25079000
O       -5.76248000      -8.64622000      -2.72750000      -0.19832000
O       -3.92370000      -8.21541000      -3.81675000      -0.19845000
N       -2.58954000       6.82028000       1.17016000       0.25060000
O       -2.99847000       6.81928000       2.32998000      -0.19402000
O       -1.79825000       7.64716000       0.70737000      -0.20145000
