90
R1TS1minorsNO2cNO2.xyz  (col5 = NBO charge)
O       -2.45923000       1.32017000       3.86678000      -0.26509000
N       -1.41522000       1.21114000       3.15526000       0.23251000
C       -1.03908000      -0.05741000       2.74753000      -0.10938000
C        0.19177000      -0.25806000       2.09165000      -0.06243000
C        0.83102000      -1.59572000       2.12900000      -0.01908000
O       -1.91693000      -1.44600000      -0.02771000      -0.33900000
C       -0.73370000      -1.20483000      -0.33392000       0.41550000
C       -0.00181000       0.00027000      -0.00030000      -0.21973000
C       -0.71212000       1.25946000      -0.02758000       0.41839000
O       -1.93658000       1.38791000       0.15554000      -0.34148000
Ni      -3.30101000      -0.07090000       0.70436000       1.35631000
O        0.02491000      -2.12525000      -0.92859000      -0.25988000
C       -0.60059000      -3.39073000      -1.22491000      -0.11401000
C       -0.55269000       3.60813000      -0.06231000      -0.11304000
H       -1.33329000       3.73566000      -0.81708000       0.09721000
H        0.87448000       0.58527000       2.14670000       0.13248000
H       -1.65646000      -0.84182000       3.15166000       0.11555000
H       -1.46333000      -3.24174000      -1.87687000       0.10217000
H       -0.92168000      -3.87820000      -0.30330000       0.09647000
O        0.07542000       2.31629000      -0.20614000      -0.25980000
H        0.16804000      -3.97989000      -1.72387000       0.10287000
H        0.24805000       4.33169000      -0.21188000       0.10044000
H       -0.97951000       3.69686000       0.93899000       0.10459000
O       -0.74636000       2.21298000       2.81719000      -0.24179000
C        2.23217000      -1.69180000       2.10135000      -0.08804000
C        0.07447000      -2.78107000       2.16837000      -0.10313000
C        2.86700000      -2.92960000       2.12541000      -0.08680000
H        2.83005000      -0.78555000       2.06265000       0.11709000
C        0.69209000      -4.02431000       2.18543000      -0.09048000
H       -1.00651000      -2.73748000       2.13547000       0.11535000
C        2.08471000      -4.08220000       2.16752000       0.03434000
H        3.94642000      -3.01562000       2.10988000       0.12881000
H        0.11449000      -4.94010000       2.19857000       0.12708000
H        1.02775000       0.03065000      -0.33695000       0.13297000
Br      -4.89500000      -0.17418000      -1.18846000      -0.27491000
C       -7.11908000      -0.30093000       4.57656000      -0.19415000
C       -7.49439000       1.04750000       3.95454000      -0.19347000
C       -6.26340000       1.72421000       3.33949000      -0.20386000
C       -5.56615000       0.82223000       2.30600000      -0.01187000
C       -5.19354000      -0.54043000       2.92718000      -0.01311000
C       -6.43896000      -1.20618000       3.54000000      -0.20048000
H       -6.54902000       2.66751000       2.86579000       0.11114000
H       -8.25315000       0.89004000       3.17438000       0.09971000
H       -7.94539000       1.70695000       4.70493000       0.10770000
H       -6.43372000      -0.13749000       5.42032000       0.10099000
H       -8.00509000      -0.80408000       4.98090000       0.10692000
H       -6.23702000       0.63436000       1.45788000       0.11180000
H       -4.43611000      -0.36404000       3.70168000       0.11275000
H       -7.14693000      -1.43023000       2.72770000       0.10335000
H       -6.17680000      -2.16260000       4.00471000       0.10619000
H       -5.54029000       1.97551000       4.12822000       0.10635000
N       -4.34029000       1.42755000       1.73274000      -0.35087000
N       -4.53546000      -1.38805000       1.88244000      -0.34283000
H       -5.24958000      -1.62767000       1.18997000       0.20615000
H       -3.71631000       1.65306000       2.51804000       0.21182000
C       -3.93694000      -2.62146000       2.42701000      -0.09747000
H       -4.59798000      -3.07493000       3.17726000       0.11256000
H       -3.02976000      -2.33118000       2.96719000       0.10589000
C       -4.56049000       2.63786000       0.89553000      -0.10684000
H       -3.74050000       2.67393000       0.17619000       0.12458000
H       -5.47173000       2.47656000       0.31625000       0.11395000
C       -4.60630000       3.95377000       1.64691000      -0.00041000
C       -3.60920000       4.29011000       2.57826000      -0.11057000
C       -5.62172000       4.88118000       1.37269000      -0.10428000
C       -3.63607000       5.51977000       3.23006000      -0.08700000
H       -2.80852000       3.59553000       2.81597000       0.12152000
C       -5.65923000       6.11750000       2.01213000      -0.09007000
H       -6.39530000       4.63091000       0.65125000       0.11455000
C       -4.66216000       6.41787000       2.93801000       0.02728000
H       -2.87739000       5.78990000       3.95421000       0.12695000
H       -6.44054000       6.84016000       1.81171000       0.12632000
C       -3.60811000      -3.69594000       1.41056000       0.00026000
C       -3.98550000      -3.63283000       0.06480000      -0.10336000
C       -2.92796000      -4.83430000       1.87770000      -0.10793000
C       -3.70379000      -4.69281000      -0.79623000      -0.08572000
H       -4.45691000      -2.74674000      -0.34824000       0.12447000
C       -2.62914000      -5.89400000       1.02869000      -0.09395000
H       -2.63252000      -4.89272000       2.92308000       0.11387000
C       -3.02896000      -5.80668000      -0.30568000       0.02271000
H       -3.98686000      -4.65264000      -1.84100000       0.12871000
H       -2.10269000      -6.77462000       1.37628000       0.12844000
N        2.74378000      -5.39876000       2.18603000       0.25073000
O        2.02147000      -6.39458000       2.22338000      -0.19481000
O        3.97322000      -5.42081000       2.16280000      -0.19303000
N       -2.70706000      -6.91392000      -1.22169000       0.25140000
O       -2.15502000      -7.90473000      -0.74507000      -0.19494000
O       -3.00422000      -6.77611000      -2.40782000      -0.19533000
N       -4.69466000       7.71849000       3.62576000       0.25084000
O       -5.61711000       8.48700000       3.35248000      -0.19856000
O       -3.79799000       7.96110000       4.43328000      -0.19706000
