94
R1TS8majorcNO2.xyz  (col5 = NBO charge)
O       -2.24702000       0.16105000      -2.57806000      -0.28611000
N       -1.67528000      -0.93007000      -2.96096000       0.22386000
C       -0.34401000      -1.08947000      -2.75684000      -0.06835000
C        0.41506000      -0.06545000      -2.15326000      -0.03905000
C        1.88364000      -0.14789000      -2.09506000      -0.04673000
O       -1.90837000       1.48780000      -0.00845000      -0.32507000
C       -0.69511000       1.26790000       0.12365000       0.41474000
C       -0.00210000       0.00029000       0.00437000      -0.23351000
C       -0.71571000      -1.24449000       0.10716000       0.41648000
O       -1.93083000      -1.42370000      -0.07562000      -0.33282000
Ni      -3.37692000       0.06767000      -0.63350000       1.34482000
O        0.16359000       2.27970000       0.32737000      -0.27204000
C       -0.41848000       3.60742000       0.40751000      -0.02664000
C       -0.51296000      -3.60619000       0.25438000      -0.02254000
H       -1.21008000      -3.69286000       1.09420000       0.09890000
H        0.00064000       0.93080000      -2.26323000       0.12387000
H        0.04010000      -2.05419000      -3.05076000       0.11757000
H       -1.06150000       3.64598000       1.29082000       0.09837000
H       -1.05027000       3.76560000      -0.46879000       0.09848000
O        0.09999000      -2.29335000       0.29317000      -0.27277000
H       -1.09087000      -3.70104000      -0.67065000       0.09562000
O       -2.35594000      -1.83521000      -3.51713000      -0.25553000
C        2.63179000       1.04202000      -2.09009000      -0.08796000
C        2.56311000      -1.37585000      -2.00592000      -0.09193000
C        4.02301000       1.00645000      -2.02860000      -0.10412000
H        2.11191000       1.99575000      -2.12452000       0.11075000
C        3.95360000      -1.40941000      -1.94101000      -0.10332000
H        2.00007000      -2.30235000      -1.95697000       0.10975000
C        4.68854000      -0.22000000      -1.95791000      -0.09716000
H        4.58761000       1.93450000      -2.03192000       0.11174000
H        4.46634000      -2.36462000      -1.87084000       0.11132000
H        5.77332000      -0.24953000      -1.90759000       0.11111000
H        1.02016000      -0.00862000       0.35619000       0.13387000
Br      -4.75881000       0.16287000       1.45130000      -0.29057000
C       -7.45450000       0.16173000      -4.21759000      -0.19425000
C       -7.77627000      -1.18419000      -3.56035000      -0.19366000
C       -6.50514000      -1.82996000      -2.99573000      -0.20309000
C       -5.76744000      -0.90544000      -2.01035000      -0.01128000
C       -5.45364000       0.45911000      -2.66435000      -0.01141000
C       -6.74197000       1.08971000      -3.22476000      -0.20025000
H       -6.74874000      -2.77288000      -2.49747000       0.11016000
H       -8.49890000      -1.02767000      -2.74635000       0.09931000
H       -8.25196000      -1.86249000      -4.27843000       0.10661000
H       -6.80679000      -0.00245000      -5.09070000       0.10016000
H       -8.36781000       0.64321000      -4.58674000       0.10599000
H       -6.39502000      -0.71681000      -1.12961000       0.10926000
H       -4.72776000       0.29195000      -3.46904000       0.11251000
H       -7.41526000       1.30748000      -2.38171000       0.10193000
H       -6.51904000       2.04810000      -3.70600000       0.10600000
H       -5.81794000      -2.07857000      -3.81756000       0.10431000
N       -4.51096000      -1.49686000      -1.49528000      -0.34452000
N       -4.76922000       1.34288000      -1.67551000      -0.33094000
H       -5.44875000       1.60725000      -0.95952000       0.20259000
H       -3.92020000      -1.76014000      -2.29306000       0.21142000
C       -4.15911000       2.54002000      -2.28620000      -0.10273000
H       -4.81327000       2.96095000      -3.06240000       0.10768000
H       -3.24827000       2.20094000      -2.78922000       0.12058000
C       -4.67591000      -2.64869000      -0.57109000      -0.10843000
H       -3.80662000      -2.64605000       0.08994000       0.12435000
H       -5.53940000      -2.44185000       0.06342000       0.11422000
C       -4.78271000      -4.01058000      -1.22641000       0.00254000
C       -3.81639000      -4.43577000      -2.15377000      -0.10984000
C       -5.81421000      -4.89133000      -0.87144000      -0.10377000
C       -3.88537000      -5.70313000      -2.72322000      -0.08879000
H       -3.01287000      -3.76699000      -2.44872000       0.11974000
C       -5.89600000      -6.16567000      -1.42751000      -0.08963000
H       -6.56430000      -4.57427000      -0.15166000       0.11498000
C       -4.92695000      -6.55325000      -2.35087000       0.02690000
H       -3.15159000      -6.04138000      -3.44446000       0.12572000
H       -6.69005000      -6.85329000      -1.16367000       0.12630000
C       -3.81510000       3.65383000      -1.32039000       0.00445000
C       -4.04267000       3.58896000       0.05914000      -0.10519000
C       -3.22118000       4.80799000      -1.86103000      -0.10550000
C       -3.67687000       4.65064000       0.88533000      -0.08534000
H       -4.44485000       2.69318000       0.52193000       0.12548000
C       -2.82142000       5.86032000      -1.04736000      -0.09421000
H       -3.05056000       4.87025000      -2.93338000       0.11364000
C       -3.05363000       5.76248000       0.32588000       0.02071000
H       -3.83364000       4.60267000       1.95617000       0.12758000
H       -2.33218000       6.73922000      -1.44863000       0.12581000
C        0.61021000      -4.62157000       0.33507000      -0.30202000
H        0.19599000      -5.63510000       0.31635000       0.11005000
H        1.29459000      -4.51192000      -0.51295000       0.10311000
H        1.18304000      -4.49594000       1.25898000       0.10748000
C        0.71348000       4.61188000       0.48026000      -0.30306000
H        1.35020000       4.54680000      -0.40872000       0.10341000
H        0.29579000       5.62366000       0.53291000       0.11068000
H        1.33505000       4.44421000       1.36527000       0.10730000
N       -5.00409000      -7.89518000      -2.94807000       0.25079000
O       -5.94109000      -8.61925000      -2.61080000      -0.19804000
O       -4.12626000      -8.21610000      -3.74980000      -0.19834000
N       -2.57409000       6.83455000       1.20673000       0.25060000
O       -2.95724000       6.83464000       2.37529000      -0.19399000
O       -1.79716000       7.66339000       0.72407000      -0.20108000
