85
R1TS1majorsCN.xyz  (col5 = NBO charge)
O       -2.26559000       0.18599000      -2.57259000      -0.28323000
N       -1.71084000      -0.90445000      -2.97179000       0.22589000
C       -0.37980000      -1.08959000      -2.75488000      -0.09060000
C        0.38683000      -0.08145000      -2.13931000       0.00109000
C        1.85726000      -0.19393000      -2.08626000      -0.04213000
O       -1.90679000       1.48962000       0.00327000      -0.31923000
C       -0.69490000       1.27140000       0.11223000       0.41347000
C       -0.00145000      -0.00020000       0.00059000      -0.23551000
C       -0.72169000      -1.24316000       0.12383000       0.41611000
O       -1.92729000      -1.42985000      -0.08881000      -0.32694000
Ni      -3.39445000       0.06876000      -0.59928000       1.33864000
O        0.16809000       2.28766000       0.27937000      -0.26883000
C       -0.41719000       3.60634000       0.35467000      -0.11394000
C       -0.54666000      -3.58040000       0.38323000      -0.11273000
H       -1.28124000      -3.63177000       1.19108000       0.10027000
H       -0.00304000       0.92347000      -2.26058000       0.12014000
H       -0.00971000      -2.05920000      -3.05098000       0.11734000
H       -1.09921000       3.67376000       1.20394000       0.10234000
H       -0.97658000       3.83634000      -0.55504000       0.09879000
O        0.09004000      -2.28754000       0.36476000      -0.26817000
H        0.42668000       4.28530000       0.47749000       0.09808000
H        0.25935000      -4.29485000       0.55112000       0.09913000
H       -1.04851000      -3.77571000      -0.56869000       0.09718000
O       -2.39259000      -1.78655000      -3.55347000      -0.24791000
C        2.63568000       0.97483000      -2.14062000      -0.09177000
C        2.50621000      -1.43410000      -1.94811000      -0.09430000
C        4.02287000       0.91257000      -2.09060000      -0.07328000
H        2.14251000       1.93955000      -2.21565000       0.11544000
C        3.89172000      -1.50783000      -1.89413000      -0.07288000
H        1.91994000      -2.34128000      -1.84982000       0.11521000
C        4.66168000      -0.33337000      -1.97162000      -0.09306000
H        4.61722000       1.81900000      -2.14029000       0.11929000
H        4.38713000      -2.46715000      -1.78586000       0.11897000
H        1.01552000      -0.00666000       0.36932000       0.13308000
Br      -4.67738000       0.06915000       1.54233000      -0.28852000
C       -7.49114000       0.57905000      -4.08739000      -0.19432000
C       -7.85080000      -0.80496000      -3.53744000      -0.19352000
C       -6.59889000      -1.54171000      -3.04468000      -0.20372000
C       -5.81576000      -0.72956000      -1.99612000      -0.01168000
C       -5.45925000       0.66973000      -2.55158000      -0.01049000
C       -6.73009000       1.39280000      -3.03306000      -0.20022000
H       -6.87207000      -2.51306000      -2.62592000       0.11308000
H       -8.55822000      -0.69066000      -2.70309000       0.09887000
H       -8.35920000      -1.40571000      -4.30107000       0.10578000
H       -6.86256000       0.46575000      -4.98246000       0.09951000
H       -8.39191000       1.12137000      -4.39925000       0.10516000
H       -6.42756000      -0.58650000      -1.09581000       0.10850000
H       -4.75741000       0.53514000      -3.38338000       0.11146000
H       -7.38162000       1.56097000      -2.16203000       0.10178000
H       -6.47585000       2.38155000      -3.43065000       0.10627000
H       -5.92956000      -1.74543000      -3.89331000       0.10351000
N       -4.57585000      -1.40379000      -1.54131000      -0.34206000
N       -4.72273000       1.45306000      -1.52004000      -0.33049000
H       -5.38093000       1.71277000      -0.78284000       0.20331000
H       -4.01368000      -1.64981000      -2.36417000       0.21010000
C       -4.04470000       2.65946000      -2.05204000      -0.09721000
H       -4.59967000       3.06104000      -2.90970000       0.10395000
H       -3.07381000       2.32949000      -2.43338000       0.11606000
C       -4.75639000      -2.60609000      -0.68107000      -0.10482000
H       -3.82967000      -2.70897000      -0.11249000       0.11826000
H       -5.53390000      -2.36907000       0.04743000       0.11304000
C       -5.04577000      -3.90365000      -1.40824000      -0.02235000
C       -4.15982000      -4.38457000      -2.38412000      -0.11141000
C       -6.17735000      -4.66490000      -1.09188000      -0.10737000
C       -4.41423000      -5.58954000      -3.03959000      -0.10259000
H       -3.27527000      -3.80730000      -2.64246000       0.11315000
C       -6.43018000      -5.87530000      -1.74197000      -0.10439000
H       -6.86740000      -4.30328000      -0.33253000       0.10928000
C       -5.55033000      -6.33903000      -2.72145000      -0.11091000
H       -3.72310000      -5.94523000      -3.79953000       0.10838000
H       -7.31498000      -6.45209000      -1.48533000       0.10881000
H       -5.74666000      -7.27787000      -3.23242000       0.10848000
C       -3.85193000       3.77634000      -1.04536000      -0.02098000
C       -4.01156000       3.61083000       0.33484000      -0.11030000
C       -3.45998000       5.03195000      -1.53425000      -0.11011000
C       -3.79124000       4.68450000       1.20265000      -0.10277000
H       -4.26940000       2.64368000       0.75492000       0.12088000
C       -3.22319000       6.09802000      -0.66688000      -0.10723000
H       -3.33813000       5.17447000      -2.60677000       0.10733000
C       -3.39234000       5.92764000       0.71048000      -0.11350000
H       -3.92338000       4.53526000       2.27108000       0.11070000
H       -2.91856000       7.06208000      -1.06601000       0.10855000
H       -3.21820000       6.75776000       1.38997000       0.10868000
C        6.09171000      -0.40691000      -1.91945000       0.16043000
N        7.25273000      -0.46693000      -1.87784000      -0.17779000
