88
R1TS1minorcNO2.xyz  (col5 = NBO charge)
O       -2.42666000       1.29073000       3.89212000      -0.26966000
N       -1.39428000       1.18297000       3.15956000       0.23133000
C       -1.02586000      -0.08080000       2.73870000      -0.11055000
C        0.20782000      -0.28100000       2.08018000      -0.05433000
C        0.85801000      -1.61307000       2.11466000      -0.04222000
O       -1.91667000      -1.44781000      -0.02710000      -0.33988000
C       -0.73385000      -1.20396000      -0.33455000       0.41721000
C       -0.00253000       0.00048000      -0.00046000      -0.22227000
C       -0.71153000       1.25876000      -0.02670000       0.41871000
O       -1.93657000       1.38933000       0.15483000      -0.34244000
Ni      -3.28281000      -0.07191000       0.72874000       1.35769000
O        0.02269000      -2.12183000      -0.93571000      -0.25929000
C       -0.59798000      -3.39205000      -1.21427000      -0.11367000
C       -0.55223000       3.60687000      -0.04991000      -0.11301000
H       -1.33346000       3.74140000      -0.80302000       0.09664000
H        0.88546000       0.56656000       2.13750000       0.13060000
H       -1.62767000      -0.86814000       3.16016000       0.11504000
H       -1.46828000      -3.25445000      -1.85891000       0.10088000
H       -0.90513000      -3.87350000      -0.28473000       0.09729000
O        0.07581000       2.31723000      -0.20472000      -0.26053000
H        0.16917000      -3.98113000      -1.71590000       0.10171000
H        0.24807000       4.33228000      -0.19382000       0.09976000
H       -0.97852000       3.68751000       0.95235000       0.10460000
O       -0.73416000       2.18978000       2.81423000      -0.24524000
C        2.25843000      -1.69349000       2.06706000      -0.08971000
C        0.11951000      -2.80752000       2.16895000      -0.10395000
C        2.90374000      -2.92922000       2.08786000      -0.10084000
H        2.84297000      -0.77812000       2.01563000       0.11137000
C        0.76293000      -4.04249000       2.18187000      -0.10357000
H       -0.96338000      -2.77590000       2.15414000       0.10948000
C        2.15823000      -4.10905000       2.14454000      -0.09902000
H        3.98880000      -2.97075000       2.05624000       0.11199000
H        0.17056000      -4.95301000       2.20937000       0.10928000
H        2.65988000      -5.07251000       2.15469000       0.11136000
H        1.02672000       0.03019000      -0.33757000       0.13267000
Br      -4.91173000      -0.16258000      -1.14449000      -0.27830000
C       -7.06135000      -0.32231000       4.64204000      -0.19414000
C       -7.44197000       1.03116000       4.03431000      -0.19342000
C       -6.21760000       1.71012000       3.40866000      -0.20391000
C       -5.53377000       0.81472000       2.36027000      -0.01171000
C       -5.15648000      -0.55304000       2.96746000      -0.01346000
C       -6.39582000      -1.22080000       3.59034000      -0.20035000
H       -6.50800000       2.65702000       2.94508000       0.11093000
H       -8.21064000       0.88021000       3.26255000       0.09949000
H       -7.88267000       1.68601000       4.79491000       0.10743000
H       -6.36486000      -0.16589000       5.47800000       0.10097000
H       -7.94318000      -0.82675000       5.05416000       0.10652000
H       -6.21480000       0.63441000       1.51860000       0.11150000
H       -4.38930000      -0.38265000       3.73353000       0.11334000
H       -7.11420000      -1.43712000       2.78505000       0.10305000
H       -6.13007000      -2.18152000       4.04424000       0.10587000
H       -5.48451000       1.95528000       4.18999000       0.10645000
N       -4.31326000       1.42167000       1.77892000      -0.35193000
N       -4.51266000      -1.39474000       1.91001000      -0.34276000
H       -5.23402000      -1.62808000       1.22303000       0.20594000
H       -3.68015000       1.63755000       2.56035000       0.21235000
C       -3.90754000      -2.63044000       2.43952000      -0.09774000
H       -4.55470000      -3.08500000       3.20138000       0.11169000
H       -2.98834000      -2.34482000       2.96087000       0.10718000
C       -4.53835000       2.63837000       0.95383000      -0.10711000
H       -3.72256000       2.67983000       0.23003000       0.12492000
H       -5.45343000       2.48268000       0.37891000       0.11362000
C       -4.57787000       3.94857000       1.71556000       0.00020000
C       -3.57424000       4.27665000       2.64305000      -0.11057000
C       -5.59399000       4.87928000       1.45498000      -0.10467000
C       -3.59575000       5.50152000       3.30398000      -0.08697000
H       -2.77272000       3.57922000       2.86979000       0.12256000
C       -5.62623000       6.11071000       2.10388000      -0.09035000
H       -6.37246000       4.63507000       0.73670000       0.11432000
C       -4.62276000       6.40313000       3.02556000       0.02688000
H       -2.83187000       5.76531000       4.02500000       0.12679000
H       -6.40808000       6.83563000       1.91400000       0.12603000
C       -3.59989000      -3.70278000       1.41508000       0.00217000
C       -3.98009000      -3.62759000       0.07065000      -0.10314000
C       -2.93089000      -4.85082000       1.87387000      -0.10662000
C       -3.71083000      -4.68495000      -0.79767000      -0.08559000
H       -4.44313000      -2.73374000      -0.33536000       0.12488000
C       -2.64373000      -5.90681000       1.01761000      -0.09379000
H       -2.63220000      -4.91682000       2.91771000       0.11386000
C       -3.04409000      -5.80773000      -0.31587000       0.02210000
H       -3.99576000      -4.63506000      -1.84150000       0.12846000
H       -2.12661000      -6.79510000       1.35871000       0.12664000
N       -2.72926000      -6.91016000      -1.23819000       0.25156000
O       -2.14527000      -7.89104000      -0.77620000      -0.19802000
O       -3.06096000      -6.78217000      -2.41601000      -0.19486000
N       -4.64947000       7.69818000       3.72302000       0.25082000
O       -5.57271000       8.47027000       3.46159000      -0.19914000
O       -3.74767000       7.93435000       4.52697000      -0.19734000
