102
R1TS1majorsNO2cNMe2.xyz  (col5 = NBO charge)
O       -2.27832000       0.17965000      -2.57805000      -0.28057000
N       -1.72116000      -0.91049000      -2.97197000       0.22860000
C       -0.38862000      -1.09221000      -2.75151000      -0.07635000
C        0.37312000      -0.08126000      -2.13585000      -0.05406000
C        1.84511000      -0.18801000      -2.08527000      -0.01894000
O       -1.90659000       1.48629000       0.00439000      -0.31751000
C       -0.69468000       1.27227000       0.11088000       0.41412000
C       -0.00058000       0.00006000       0.00072000      -0.23119000
C       -0.72288000      -1.24259000       0.12489000       0.41652000
O       -1.92739000      -1.42823000      -0.08977000      -0.32526000
Ni      -3.40111000       0.07122000      -0.59546000       1.33802000
O        0.16693000       2.29094000       0.26984000      -0.26894000
C       -0.42262000       3.60936000       0.33545000      -0.11412000
C       -0.55035000      -3.57971000       0.38031000      -0.11277000
H       -1.28799000      -3.63129000       1.18533000       0.10040000
H       -0.01993000       0.92211000      -2.25945000       0.12520000
H       -0.01644000      -2.06258000      -3.04244000       0.11743000
H       -1.10143000       3.68303000       1.18678000       0.10285000
H       -0.98897000       3.82773000      -0.57281000       0.09949000
O        0.08855000      -2.28776000       0.36631000      -0.26867000
H        0.41988000       4.29198000       0.44684000       0.09766000
H        0.25408000      -4.29577000       0.54936000       0.09881000
H       -1.04977000      -3.77182000      -0.57353000       0.09748000
O       -2.39758000      -1.79605000      -3.55236000      -0.24589000
C        2.61851000       0.98452000      -2.14735000      -0.08932000
C        2.49797000      -1.42649000      -1.94294000      -0.09277000
C        4.00673000       0.92919000      -2.09984000      -0.08989000
H        2.12144000       1.94671000      -2.22569000       0.11646000
C        3.88438000      -1.49692000      -1.89171000      -0.08985000
H        1.91468000      -2.33469000      -1.83874000       0.11601000
C        4.62220000      -0.31570000      -1.97750000       0.03361000
H        4.61443000       1.82384000      -2.15339000       0.12791000
H        4.40133000      -2.44196000      -1.78093000       0.12763000
H        1.01582000      -0.00679000       0.37136000       0.13269000
Br      -4.66051000       0.06400000       1.56066000      -0.28937000
C       -7.51648000       0.65698000      -4.04242000      -0.19427000
C       -7.88062000      -0.73229000      -3.50875000      -0.19350000
C       -6.63055000      -1.48552000      -3.03635000      -0.20379000
C       -5.83352000      -0.69370000      -1.98226000      -0.01164000
C       -5.47063000       0.70944000      -2.52433000      -0.01019000
C       -6.73940000       1.44982000      -2.98397000      -0.20017000
H       -6.90638000      -2.46110000      -2.63046000       0.11401000
H       -8.58033000      -0.62458000      -2.66692000       0.09855000
H       -8.39999000      -1.31874000      -4.27631000       0.10532000
H       -6.89692000       0.55182000      -4.94483000       0.09921000
H       -8.41628000       1.20997000      -4.33846000       0.10462000
H       -6.43849000      -0.55686000      -1.07634000       0.10806000
H       -4.77967000       0.57836000      -3.36589000       0.11076000
H       -7.38152000       1.61094000      -2.10463000       0.10164000
H       -6.47951000       2.44209000      -3.36902000       0.10628000
H       -5.96892000      -1.68145000      -3.89294000       0.10311000
N       -4.59568000      -1.38191000      -1.54293000      -0.34138000
N       -4.71650000       1.47510000      -1.49382000      -0.33022000
H       -5.36510000       1.73938000      -0.74973000       0.20310000
H       -4.04414000      -1.62774000      -2.37274000       0.20933000
C       -4.02604000       2.68038000      -2.01939000      -0.09295000
H       -4.56683000       3.07745000      -2.88853000       0.10165000
H       -3.05145000       2.34315000      -2.38524000       0.11287000
C       -4.77600000      -2.59726000      -0.69541000      -0.10150000
H       -3.84079000      -2.71019000      -0.14284000       0.11543000
H       -5.54007000      -2.36068000       0.04768000       0.11202000
C       -5.09336000      -3.87645000      -1.43666000      -0.05154000
C       -4.22134000      -4.38374000      -2.40928000      -0.09711000
C       -6.24279000      -4.62065000      -1.15506000      -0.09372000
C       -4.49452000      -5.56658000      -3.08825000      -0.13513000
H       -3.31155000      -3.84009000      -2.65426000       0.11166000
C       -6.53040000      -5.81116000      -1.81886000      -0.13844000
H       -6.93521000      -4.26441000      -0.39468000       0.10778000
C       -5.66801000      -6.30999000      -2.82065000       0.09968000
H       -3.78408000      -5.90951000      -3.83089000       0.10958000
H       -7.43362000      -6.34647000      -1.55186000       0.11000000
C       -3.85448000       3.79338000      -1.00728000      -0.04955000
C       -3.97546000       3.61958000       0.37492000      -0.09663000
C       -3.51131000       5.07076000      -1.46711000      -0.09651000
C       -3.76499000       4.67545000       1.25936000      -0.13695000
H       -4.20916000       2.64654000       0.79568000       0.11988000
C       -3.27868000       6.13134000      -0.59639000      -0.13947000
H       -3.42257000       5.24948000      -2.53784000       0.10584000
C       -3.39095000       5.95834000       0.80287000       0.09739000
H       -3.88666000       4.47832000       2.31765000       0.11195000
H       -3.02332000       7.09734000      -1.01526000       0.10965000
N        6.09100000      -0.38520000      -1.92650000       0.25008000
O        6.71555000       0.67313000      -1.99765000      -0.19563000
O        6.60647000      -1.49761000      -1.81619000      -0.19563000
N       -5.96416000      -7.47790000      -3.52065000      -0.25466000
C       -4.93238000      -8.08252000      -4.34587000      -0.18194000
C       -7.03016000      -8.33599000      -3.03230000      -0.18195000
H       -5.33186000      -8.98250000      -4.81828000       0.10304000
H       -4.62380000      -7.40138000      -5.14770000       0.09949000
H       -4.03293000      -8.36248000      -3.77260000       0.09226000
H       -6.85360000      -8.69762000      -2.00571000       0.09272000
H       -7.99224000      -7.81004000      -3.04453000       0.09919000
H       -7.12401000      -9.20260000      -3.69022000       0.10301000
N       -3.13250000       7.00306000       1.68940000      -0.25600000
C       -3.03259000       8.35494000       1.16600000      -0.18199000
C       -3.52318000       6.84755000       3.08151000      -0.18207000
H       -2.83573000       9.04520000       1.98914000       0.10317000
H       -2.19695000       8.44078000       0.46117000       0.09836000
H       -3.94884000       8.68482000       0.64852000       0.09255000
H       -4.60415000       6.67198000       3.20678000       0.09356000
H       -2.98942000       6.00983000       3.54495000       0.09972000
H       -3.25423000       7.75129000       3.63266000       0.10252000
