88
R1TS1majorcNO2.xyz  (col5 = NBO charge)
O       -2.22386000       0.18388000      -2.57103000      -0.28727000
N       -1.66030000      -0.90844000      -2.96576000       0.22303000
C       -0.33415000      -1.08458000      -2.75103000      -0.06814000
C        0.43266000      -0.07138000      -2.13424000      -0.04077000
C        1.90130000      -0.17699000      -2.07638000      -0.04642000
O       -1.90700000       1.49494000      -0.00312000      -0.32289000
C       -0.69565000       1.26888000       0.12055000       0.41500000
C       -0.00223000       0.00003000      -0.00153000      -0.23420000
C       -0.71913000      -1.24378000       0.11907000       0.41726000
O       -1.92811000      -1.43227000      -0.08386000      -0.32997000
Ni      -3.37474000       0.06377000      -0.63429000       1.34054000
O        0.16691000       2.27887000       0.32347000      -0.26671000
C       -0.40992000       3.59630000       0.42760000      -0.11371000
C       -0.53461000      -3.58261000       0.36236000      -0.11227000
H       -1.26636000      -3.64677000       1.17208000       0.09952000
H        0.03743000       0.93143000      -2.25671000       0.12367000
H        0.04481000      -2.04903000      -3.05267000       0.11781000
H       -1.08709000       3.64767000       1.28260000       0.10052000
H       -0.96723000       3.84890000      -0.47765000       0.09701000
O        0.09386000      -2.28683000       0.35366000      -0.26635000
H        0.43613000       4.26970000       0.56446000       0.09979000
H        0.27589000      -4.29392000       0.52101000       0.09989000
H       -1.03690000      -3.77278000      -0.59054000       0.09611000
O       -2.34625000      -1.79712000      -3.54203000      -0.25728000
C        2.67058000       0.99846000      -2.10680000      -0.08846000
C        2.55843000      -1.41449000      -1.95832000      -0.09232000
C        4.06156000       0.93894000      -2.05257000      -0.10406000
H        2.16846000       1.96042000      -2.16749000       0.11090000
C        3.94849000      -1.47192000      -1.90012000      -0.10312000
H        1.97818000      -2.32847000      -1.88160000       0.11047000
C        4.70490000      -0.29708000      -1.95279000      -0.09748000
H        4.64297000       1.85599000      -2.08469000       0.11172000
H        4.44415000      -2.43419000      -1.80760000       0.11141000
H        5.78925000      -0.34525000      -1.90790000       0.11113000
H        1.01469000      -0.00724000       0.36631000       0.13479000
Br      -4.73642000       0.09501000       1.46106000      -0.28843000
C       -7.39856000       0.39202000      -4.24774000      -0.19434000
C       -7.75306000      -0.97752000      -3.65982000      -0.19363000
C       -6.50294000      -1.67413000      -3.10829000      -0.20322000
C       -5.76160000      -0.81218000      -2.06974000      -0.01138000
C       -5.41408000       0.57498000      -2.65817000      -0.01109000
C       -6.68293000       1.25674000      -3.20174000      -0.20027000
H       -6.77316000      -2.63394000      -2.65948000       0.11051000
H       -8.48501000      -0.84646000      -2.84963000       0.09929000
H       -8.22995000      -1.61241000      -4.41578000       0.10668000
H       -6.74215000       0.25818000      -5.11953000       0.10017000
H       -8.29815000       0.90739000      -4.60454000       0.10603000
H       -6.39846000      -0.65188000      -1.18995000       0.10886000
H       -4.68222000       0.42988000      -3.46158000       0.11283000
H       -7.36301000       1.44475000      -2.35699000       0.10196000
H       -6.43583000       2.23419000      -3.63040000       0.10599000
H       -5.80815000      -1.89766000      -3.93095000       0.10434000
N       -4.52255000      -1.44971000      -1.56527000      -0.34395000
N       -4.72565000       1.40094000      -1.62427000      -0.33053000
H       -5.41012000       1.65499000      -0.90924000       0.20297000
H       -3.92746000      -1.69572000      -2.36588000       0.21189000
C       -4.06930000       2.60815000      -2.16969000      -0.10190000
H       -4.64814000       3.02002000      -3.00686000       0.10695000
H       -3.10811000       2.28391000      -2.58078000       0.12108000
C       -4.71056000      -2.62963000      -0.68265000      -0.10838000
H       -3.82029000      -2.68837000      -0.05228000       0.12299000
H       -5.54261000      -2.40966000      -0.01160000       0.11471000
C       -4.89830000      -3.95824000      -1.38658000       0.00179000
C       -3.95993000      -4.40092000      -2.33402000      -0.10886000
C       -5.98102000      -4.78877000      -1.06510000      -0.10389000
C       -4.10771000      -5.63510000      -2.95865000      -0.08883000
H       -3.11544000      -3.77054000      -2.59840000       0.11984000
C       -6.14181000      -6.02990000      -1.67644000      -0.08984000
H       -6.70921000      -4.45775000      -0.32932000       0.11509000
C       -5.20007000      -6.43442000      -2.62052000       0.02710000
H       -3.39666000      -5.98652000      -3.69615000       0.12590000
H       -6.97593000      -6.67882000      -1.43963000       0.12632000
C       -3.84251000       3.72103000      -1.16868000       0.00287000
C       -4.03084000       3.57585000       0.21146000      -0.10672000
C       -3.39813000       4.95684000      -1.66965000      -0.10542000
C       -3.78275000       4.64260000       1.07407000      -0.08744000
H       -4.32919000       2.62448000       0.64057000       0.12639000
C       -3.13319000       6.02525000      -0.82153000      -0.09405000
H       -3.25461000       5.08110000      -2.74062000       0.11337000
C       -3.33132000       5.85080000       0.54909000       0.02437000
H       -3.92032000       4.53756000       2.14340000       0.12791000
H       -2.78606000       6.97998000      -1.19660000       0.12600000
N       -5.36173000      -7.74079000      -3.27724000       0.25078000
O       -6.34015000      -8.42066000      -2.96673000      -0.19803000
O       -4.50868000      -8.07773000      -4.09878000      -0.19814000
N       -3.04390000       6.96992000       1.45891000       0.25050000
O       -2.64334000       8.02332000       0.96097000      -0.20002000
O       -3.21370000       6.78683000       2.66399000      -0.19624000
