92
R1TS1majorsOMecNO2.xyz  (col5 = NBO charge)
O       -2.15073000       0.19568000      -2.56906000      -0.29240000
N       -1.58275000      -0.89846000      -2.96568000       0.21714000
C       -0.26635000      -1.07770000      -2.73085000      -0.06584000
C        0.49635000      -0.06634000      -2.08895000      -0.05586000
C        1.95952000      -0.18228000      -2.01625000      -0.01945000
O       -1.90728000       1.49434000      -0.00385000      -0.32100000
C       -0.69711000       1.26859000       0.12242000       0.41614000
C        0.00063000       0.00003000      -0.00395000      -0.23590000
C       -0.72030000      -1.24419000       0.12079000       0.41853000
O       -1.92806000      -1.43097000      -0.08430000      -0.32807000
Ni      -3.36106000       0.06420000      -0.68766000       1.34066000
O        0.16475000       2.27789000       0.33548000      -0.26777000
C       -0.41420000       3.59431000       0.44075000      -0.11384000
C       -0.53775000      -3.58187000       0.37229000      -0.11244000
H       -1.27560000      -3.64360000       1.17660000       0.09945000
H        0.11517000       0.93935000      -2.23481000       0.12220000
H        0.12067000      -2.03669000      -3.03975000       0.11711000
H       -1.10042000       3.64070000       1.28883000       0.10061000
H       -0.96195000       3.85115000      -0.46905000       0.09719000
O        0.09105000      -2.28599000       0.36484000      -0.26637000
H        0.42965000       4.26790000       0.59021000       0.09951000
H        0.27143000      -4.29289000       0.53877000       0.10001000
H       -1.03298000      -3.77401000      -0.58390000       0.09647000
O       -2.26688000      -1.77881000      -3.56271000      -0.26502000
C        2.74432000       0.97981000      -2.01789000      -0.06124000
C        2.61555000      -1.42484000      -1.89775000      -0.09703000
C        4.13462000       0.92362000      -1.94056000      -0.16204000
H        2.25647000       1.94934000      -2.07533000       0.10764000
C        3.99555000      -1.49636000      -1.81593000      -0.12523000
H        2.03382000      -2.33925000      -1.84052000       0.11054000
C        4.76998000      -0.32255000      -1.84294000       0.17437000
H        4.70600000       1.84411000      -1.95404000       0.11511000
H        4.50781000      -2.44844000      -1.72299000       0.11702000
H        1.00759000      -0.00672000       0.39065000       0.13423000
Br      -4.79015000       0.10170000       1.36422000      -0.29006000
C       -7.27898000       0.34889000      -4.42002000      -0.19433000
C       -7.64595000      -1.01665000      -3.83042000      -0.19360000
C       -6.40960000      -1.70313000      -3.23698000      -0.20321000
C       -5.70209000      -0.82945000      -2.18474000      -0.01123000
C       -5.34327000       0.55457000      -2.77343000      -0.01132000
C       -6.59804000       1.22589000      -3.36117000      -0.20029000
H       -6.68841000      -2.66053000      -2.78788000       0.11032000
H       -8.40148000      -0.88103000      -3.04292000       0.09919000
H       -8.09859000      -1.65990000      -4.59422000       0.10655000
H       -6.59622000       0.20951000      -5.27043000       0.10021000
H       -8.16931000       0.85759000      -4.80836000       0.10586000
H       -6.36417000      -0.66527000      -1.32443000       0.10872000
H       -4.58614000       0.40627000      -3.55249000       0.11303000
H       -7.30388000       1.41880000      -2.53893000       0.10181000
H       -6.34215000       2.20032000      -3.79151000       0.10604000
H       -5.69025000      -1.93024000      -4.03717000       0.10451000
N       -4.47524000      -1.45767000      -1.64186000      -0.34484000
N       -4.69041000       1.39211000      -1.72569000      -0.33003000
H       -5.39679000       1.64784000      -1.03290000       0.20256000
H       -3.85377000      -1.69994000      -2.42413000       0.21291000
C       -4.02497000       2.59736000      -2.26264000      -0.10255000
H       -4.59193000       3.01142000      -3.10711000       0.10706000
H       -3.05979000       2.26938000      -2.66135000       0.12162000
C       -4.68365000      -2.63595000      -0.76262000      -0.10833000
H       -3.81759000      -2.68415000      -0.09853000       0.12298000
H       -5.54276000      -2.42330000      -0.12398000       0.11448000
C       -4.83026000      -3.96944000      -1.46739000       0.00212000
C       -3.86139000      -4.39876000      -2.39013000      -0.10930000
C       -5.90489000      -4.81857000      -1.16788000      -0.10403000
C       -3.97100000      -5.63887000      -3.01095000      -0.08876000
H       -3.02373000      -3.75322000      -2.63957000       0.12047000
C       -6.02754000      -6.06565000      -1.77581000      -0.08988000
H       -6.65684000      -4.49758000      -0.45179000       0.11498000
C       -5.05565000      -6.45737000      -2.69445000       0.02690000
H       -3.23610000      -5.98022000      -3.72958000       0.12576000
H       -6.85496000      -6.72885000      -1.55565000       0.12623000
C       -3.80806000       3.71015000      -1.25954000       0.00320000
C       -4.03245000       3.57263000       0.11593000      -0.10659000
C       -3.33708000       4.93894000      -1.75377000      -0.10563000
C       -3.79276000       4.63963000       0.98059000      -0.08726000
H       -4.35228000       2.62636000       0.54094000       0.12640000
C       -3.08098000       6.00757000      -0.90338000      -0.09423000
H       -3.16551000       5.05697000      -2.82132000       0.11337000
C       -3.31449000       5.84058000       0.46272000       0.02409000
H       -3.95724000       4.53993000       2.04662000       0.12789000
H       -2.71350000       6.95672000      -1.27321000       0.12591000
O        6.11278000      -0.50483000      -1.76112000      -0.27228000
C        6.95647000       0.63983000      -1.77083000      -0.11100000
H        6.75097000       1.29741000      -0.91585000       0.09022000
H        7.97624000       0.25877000      -1.69704000       0.10080000
H        6.84787000       1.21082000      -2.70242000       0.09013000
N       -5.17655000      -7.77002000      -3.34694000       0.25077000
O       -6.14910000      -8.46698000      -3.05607000      -0.19826000
O       -4.29765000      -8.09542000      -4.14566000      -0.19825000
N       -3.03504000       6.95907000       1.37538000       0.25046000
O       -2.60982000       8.00599000       0.88391000      -0.20027000
O       -3.23513000       6.78240000       2.57683000      -0.19634000
