102
R1TS1minorsNO2cNMe2.xyz  (col5 = NBO charge)
O       -2.45102000       1.36578000       3.81649000      -0.26503000
N       -1.39771000       1.22908000       3.12565000       0.23204000
C       -1.04421000      -0.04634000       2.72265000      -0.11288000
C        0.18418000      -0.27086000       2.06238000      -0.06753000
C        0.78688000      -1.62902000       2.06852000      -0.01600000
O       -1.91528000      -1.44210000      -0.02254000      -0.33154000
C       -0.74068000      -1.19830000      -0.34303000       0.41606000
C        0.00186000       0.00060000       0.00941000      -0.21626000
C       -0.71238000       1.25928000      -0.03196000       0.41901000
O       -1.93467000       1.37732000       0.15415000      -0.33895000
Ni      -3.31182000      -0.07309000       0.73004000       1.35809000
O        0.00916000      -2.10310000      -0.97625000      -0.26243000
C       -0.62437000      -3.36331000      -1.27626000      -0.11516000
C       -0.57189000       3.60644000      -0.08534000      -0.11338000
H       -1.36963000       3.71905000      -0.82419000       0.09750000
H        0.89178000       0.55019000       2.14266000       0.13163000
H       -1.69174000      -0.81717000       3.10333000       0.11539000
H       -1.52557000      -3.20233000      -1.87092000       0.10208000
H       -0.89591000      -3.87921000      -0.35534000       0.10092000
O        0.06776000       2.31945000      -0.22909000      -0.26120000
H        0.12024000      -3.93133000      -1.83443000       0.09923000
H        0.21829000       4.33688000      -0.25763000       0.09873000
H       -0.98167000       3.70012000       0.92224000       0.10647000
O       -0.69262000       2.21322000       2.80182000      -0.24664000
C        2.17688000      -1.77237000       1.91153000      -0.09060000
C       -0.00264000      -2.78867000       2.15556000      -0.10219000
C        2.76511000      -3.02941000       1.82323000      -0.08788000
H        2.80034000      -0.88527000       1.84120000       0.11595000
C        0.56783000      -4.05126000       2.06341000      -0.09082000
H       -1.07919000      -2.71827000       2.23342000       0.11966000
C        1.94545000      -4.15680000       1.88788000       0.03137000
H        3.83349000      -3.14926000       1.69251000       0.12738000
H       -0.04826000      -4.93970000       2.09869000       0.13006000
H        1.02848000       0.02983000      -0.33730000       0.13150000
Br      -4.87323000      -0.28720000      -1.18356000      -0.27986000
C       -7.29464000      -0.07319000       4.43629000      -0.19391000
C       -7.60671000       1.25628000       3.74212000      -0.19337000
C       -6.33185000       1.88264000       3.16430000      -0.20362000
C       -5.60451000       0.92150000       2.20723000      -0.01205000
C       -5.28279000      -0.41045000       2.91194000      -0.01306000
C       -6.57411000      -1.03106000       3.47723000      -0.20007000
H       -6.56813000       2.81165000       2.63940000       0.11300000
H       -8.32742000       1.08108000       2.93003000       0.09894000
H       -8.08257000       1.95469000       4.44085000       0.10589000
H       -6.65406000       0.11232000       5.31043000       0.10001000
H       -8.21202000      -0.54388000       4.80991000       0.10526000
H       -6.24314000       0.69943000       1.34275000       0.11106000
H       -4.57437000      -0.20199000       3.72411000       0.11168000
H       -7.23806000      -1.27410000       2.63382000       0.10281000
H       -6.35870000      -1.97306000       3.99191000       0.10602000
H       -5.64351000       2.15278000       3.97770000       0.10536000
N       -4.35137000       1.48067000       1.65246000      -0.34936000
N       -4.56586000      -1.32036000       1.96362000      -0.34275000
H       -5.24105000      -1.62402000       1.25708000       0.20549000
H       -3.74616000       1.73188000       2.44416000       0.21172000
C       -4.00000000      -2.50528000       2.64363000      -0.08929000
H       -4.71239000      -2.89170000       3.38455000       0.10579000
H       -3.13731000      -2.15645000       3.22327000       0.09986000
C       -4.53547000       2.67068000       0.76733000      -0.09899000
H       -3.72802000       2.63802000       0.03597000       0.11846000
H       -5.46220000       2.51957000       0.20863000       0.10917000
C       -4.53240000       4.00824000       1.47648000      -0.05352000
C       -3.52743000       4.35712000       2.39008000      -0.10908000
C       -5.51404000       4.96610000       1.20521000      -0.09477000
C       -3.50957000       5.60411000       3.00716000      -0.11529000
H       -2.74750000       3.64874000       2.65804000       0.11420000
C       -5.50722000       6.22147000       1.80891000      -0.13826000
H       -6.31429000       4.72724000       0.50696000       0.10677000
C       -4.49266000       6.58015000       2.72394000       0.09350000
H       -2.71728000       5.80964000       3.71683000       0.11058000
H       -6.30210000       6.91601000       1.56502000       0.10959000
C       -3.59670000      -3.64894000       1.73795000      -0.05201000
C       -3.87485000      -3.71796000       0.37077000      -0.09318000
C       -2.92792000      -4.73544000       2.31749000      -0.09803000
C       -3.49192000      -4.82262000      -0.38879000      -0.13469000
H       -4.34667000      -2.88793000      -0.14702000       0.11718000
C       -2.51774000      -5.83297000       1.56979000      -0.13961000
H       -2.70425000      -4.72041000       3.38346000       0.10695000
C       -2.78439000      -5.90413000       0.18112000       0.09576000
H       -3.71608000      -4.80751000      -1.44840000       0.11188000
H       -1.99055000      -6.63560000       2.07147000       0.11255000
N        2.54144000      -5.49150000       1.74351000       0.25079000
O        1.77915000      -6.46167000       1.72406000      -0.19939000
O        3.76545000      -5.56621000       1.64310000      -0.19443000
N       -4.45719000       7.84160000       3.31619000      -0.25620000
C       -5.62202000       8.70176000       3.19861000      -0.18193000
C       -3.56970000       8.05856000       4.44679000      -0.18224000
H       -5.42693000       9.64385000       3.71558000       0.10288000
H       -5.82621000       8.94126000       2.14832000       0.09913000
H       -6.53335000       8.25289000       3.62811000       0.09216000
H       -3.78213000       7.38620000       5.29437000       0.09295000
H       -2.52282000       7.91416000       4.15546000       0.09942000
H       -3.67307000       9.08982000       4.79132000       0.10252000
N       -2.35122000      -6.98639000      -0.57706000      -0.25477000
C       -2.46413000      -6.91356000      -2.02378000      -0.18142000
C       -1.31207000      -7.84782000      -0.02443000      -0.18402000
H       -2.11995000      -7.85418000      -2.45855000       0.10397000
H       -3.50804000      -6.77457000      -2.32538000       0.10129000
H       -1.87145000      -6.09219000      -2.46268000       0.08998000
H       -0.41190000      -7.28988000       0.27890000       0.09689000
H       -1.68043000      -8.39755000       0.84971000       0.09917000
H       -1.02421000      -8.58693000      -0.77452000       0.10398000
