100
R1TS1minorcNMe2.xyz  (col5 = NBO charge)
O       -2.40603000       1.30945000       3.89207000      -0.26797000
N       -1.37724000       1.19886000       3.15785000       0.23119000
C       -1.01468000      -0.06531000       2.73221000      -0.11181000
C        0.21528000      -0.26701000       2.06595000      -0.05801000
C        0.86772000      -1.59968000       2.11358000      -0.03967000
O       -1.91674000      -1.44044000      -0.02771000      -0.33509000
C       -0.73538000      -1.20272000      -0.33415000       0.41643000
C        0.00125000       0.00024000       0.00150000      -0.22151000
C       -0.71377000       1.25717000      -0.02969000       0.41836000
O       -1.93650000       1.38255000       0.15608000      -0.33963000
Ni      -3.29380000      -0.08226000       0.74100000       1.36030000
O        0.01550000      -2.12721000      -0.93723000      -0.26176000
C       -0.62419000      -3.39290000      -1.19833000      -0.11491000
C       -0.57069000       3.60405000      -0.05513000      -0.11324000
H       -1.36018000       3.73117000      -0.80075000       0.09690000
H        0.89407000       0.57961000       2.12671000       0.12963000
H       -1.62246000      -0.85245000       3.14502000       0.11497000
H       -1.50666000      -3.24989000      -1.82453000       0.10128000
H       -0.92634000      -3.86854000      -0.26455000       0.10138000
O        0.06898000       2.32018000      -0.21491000      -0.26259000
H        0.12942000      -3.99183000      -1.71034000       0.09786000
H        0.22183000       4.33707000      -0.20576000       0.09787000
H       -0.99164000       3.68117000       0.94950000       0.10617000
O       -0.70691000       2.20234000       2.81779000      -0.24856000
C        2.26879000      -1.67861000       2.09932000      -0.09202000
C        0.12935000      -2.79457000       2.15028000      -0.10431000
C        2.91512000      -2.91374000       2.13614000      -0.10242000
H        2.85328000      -0.76239000       2.06187000       0.11059000
C        0.77384000      -4.02901000       2.17688000      -0.10340000
H       -0.95284000      -2.76697000       2.10745000       0.11300000
C        2.16961000      -4.09435000       2.17420000      -0.10195000
H        4.00098000      -2.95372000       2.13126000       0.11074000
H        0.17736000      -4.93712000       2.18290000       0.11016000
H        2.67271000      -5.05726000       2.19649000       0.10967000
H        1.02835000       0.03065000      -0.34270000       0.13135000
Br      -4.91732000      -0.20770000      -1.14000000      -0.28346000
C       -7.07114000      -0.33608000       4.64064000      -0.19399000
C       -7.45417000       1.01367000       4.02574000      -0.19329000
C       -6.23094000       1.69672000       3.40240000      -0.20406000
C       -5.53837000       0.79969000       2.36057000      -0.01139000
C       -5.15308000      -0.56045000       2.97997000      -0.01333000
C       -6.39292000      -1.23365000       3.59662000      -0.19999000
H       -6.51961000       2.64153000       2.93543000       0.11306000
H       -8.21854000       0.85507000       3.25083000       0.09859000
H       -7.90295000       1.66932000       4.78163000       0.10569000
H       -6.38042000      -0.17249000       5.48029000       0.10011000
H       -7.95300000      -0.84401000       5.04972000       0.10486000
H       -6.21793000       0.60704000       1.52030000       0.11032000
H       -4.39582000      -0.37638000       3.75293000       0.11221000
H       -7.10424000      -1.45527000       2.78639000       0.10235000
H       -6.12465000      -2.19245000       4.05268000       0.10582000
H       -5.50149000       1.94807000       4.18521000       0.10580000
N       -4.32483000       1.41189000       1.77295000      -0.35159000
N       -4.49042000      -1.40723000       1.94090000      -0.34188000
H       -5.20352000      -1.67049000       1.25655000       0.20508000
H       -3.69608000       1.64830000       2.55133000       0.21192000
C       -3.86333000      -2.62582000       2.49486000      -0.08943000
H       -4.50227000      -3.06072000       3.27516000       0.10525000
H       -2.94733000      -2.30929000       3.00505000       0.10050000
C       -4.56160000       2.62867000       0.93910000      -0.09936000
H       -3.75664000       2.65337000       0.20379000       0.11835000
H       -5.48504000       2.46441000       0.37893000       0.10949000
C       -4.60041000       3.93671000       1.69998000      -0.05329000
C       -3.57491000       4.30211000       2.58388000      -0.10815000
C       -5.64364000       4.84835000       1.51382000      -0.09499000
C       -3.59777000       5.52000000       3.25612000      -0.11473000
H       -2.74701000       3.62628000       2.78375000       0.11497000
C       -5.67846000       6.07478000       2.17405000      -0.13872000
H       -6.45982000       4.59480000       0.83957000       0.10665000
C       -4.64508000       6.44955000       3.06072000       0.09300000
H       -2.78623000       5.73977000       3.93930000       0.11037000
H       -6.51980000       6.73366000       1.99559000       0.10937000
C       -3.55191000      -3.71062000       1.48452000      -0.04776000
C       -3.95923000      -3.68749000       0.14843000      -0.09262000
C       -2.84167000      -4.83514000       1.92301000      -0.09832000
C       -3.68604000      -4.75079000      -0.70945000      -0.13400000
H       -4.45200000      -2.81620000      -0.27226000       0.11768000
C       -2.54334000      -5.89670000       1.07428000      -0.13879000
H       -2.50181000      -4.88505000       2.95658000       0.10666000
C       -2.97438000      -5.88932000      -0.27347000       0.09507000
H       -4.01576000      -4.66532000      -1.73761000       0.11214000
H       -1.98266000      -6.73428000       1.47161000       0.11006000
N       -4.65214000       7.68490000       3.70905000      -0.25666000
C       -5.87004000       8.47633000       3.68713000      -0.18195000
C       -3.73264000       7.89781000       4.81453000      -0.18229000
H       -5.70554000       9.40467000       4.23865000       0.10262000
H       -6.13947000       8.74964000       2.66010000       0.09919000
H       -6.73139000       7.95384000       4.13651000       0.09192000
H       -3.87511000       7.17731000       5.63702000       0.09282000
H       -2.69233000       7.82344000       4.47733000       0.09952000
H       -3.87554000       8.90557000       5.21093000       0.10223000
N       -2.70305000      -6.95575000      -1.12877000      -0.25554000
C       -2.92358000      -6.77627000      -2.55479000      -0.18179000
C       -1.70707000      -7.93395000      -0.72434000      -0.18172000
H       -2.67381000      -7.70283000      -3.07602000       0.10321000
H       -3.97698000      -6.55768000      -2.76085000       0.10124000
H       -2.31685000      -5.96116000      -2.98440000       0.09151000
H       -0.71787000      -7.48402000      -0.53330000       0.09126000
H       -2.02083000      -8.45998000       0.18475000       0.09942000
H       -1.59774000      -8.68251000      -1.51178000       0.10381000
