104
R1TS1minorsOMecNMe2.xyz  (col5 = NBO charge)
O       -2.37489000       1.31206000       3.90503000      -0.26981000
N       -1.35722000       1.19156000       3.15546000       0.23057000
C       -1.01382000      -0.07287000       2.72030000      -0.11470000
C        0.21907000      -0.28440000       2.05330000      -0.05576000
C        0.85990000      -1.61879000       2.10188000      -0.05776000
O       -1.91599000      -1.44208000      -0.02649000      -0.33417000
C       -0.73656000      -1.20180000      -0.33667000       0.41723000
C        0.00103000       0.00009000       0.00395000      -0.22155000
C       -0.71366000       1.25755000      -0.03074000       0.41893000
O       -1.93596000       1.38305000       0.15598000      -0.33897000
Ni      -3.27918000      -0.08199000       0.76822000       1.35796000
O        0.01363000      -2.12264000      -0.94676000      -0.26200000
C       -0.62463000      -3.38870000      -1.21014000      -0.11496000
C       -0.57016000       3.60391000      -0.06045000      -0.11326000
H       -1.36348000       3.73056000      -0.80210000       0.09680000
H        0.90431000       0.55655000       2.12359000       0.12933000
H       -1.61707000      -0.85666000       3.14614000       0.11505000
H       -1.51235000      -3.24481000      -1.82867000       0.10113000
H       -0.91734000      -3.87048000      -0.27666000       0.10173000
O        0.06864000       2.31997000      -0.22221000      -0.26269000
H        0.12659000      -3.98279000      -1.73137000       0.09771000
H        0.22153000       4.33692000      -0.21575000       0.09770000
H       -0.98584000       3.68181000       0.94630000       0.10630000
O       -0.68235000       2.19047000       2.80737000      -0.25058000
C        2.25578000      -1.72088000       2.07085000      -0.07801000
C        0.11564000      -2.81368000       2.14284000      -0.09363000
C        2.90259000      -2.95745000       2.09520000      -0.14884000
H        2.85523000      -0.81456000       2.02839000       0.11071000
C        0.74123000      -4.04964000       2.15770000      -0.12480000
H       -0.96662000      -2.78263000       2.11156000       0.11412000
C        2.14255000      -4.13358000       2.13646000       0.17048000
H        3.98565000      -2.98987000       2.07708000       0.11475000
H        0.16014000      -4.96597000       2.16484000       0.11568000
H        1.02695000       0.03068000      -0.34397000       0.13091000
Br      -4.92102000      -0.20736000      -1.10202000      -0.28419000
C       -7.04137000      -0.31788000       4.68625000      -0.19396000
C       -7.42262000       1.03202000       4.07074000      -0.19328000
C       -6.19966000       1.70922000       3.44073000      -0.20400000
C       -5.51553000       0.80783000       2.39707000      -0.01140000
C       -5.13162000      -0.55235000       3.01681000      -0.01334000
C       -6.37107000      -1.21984000       3.64090000      -0.19997000
H       -6.48670000       2.65447000       2.97362000       0.11294000
H       -8.19100000       0.87469000       3.29953000       0.09855000
H       -7.86571000       1.69060000       4.82750000       0.10557000
H       -6.34613000      -0.15504000       5.52231000       0.10009000
H       -7.92300000      -0.82209000       5.10050000       0.10476000
H       -6.20016000       0.61562000       1.56081000       0.11037000
H       -4.36995000      -0.36967000       3.78576000       0.11225000
H       -7.08693000      -1.44089000       2.83452000       0.10232000
H       -6.10427000      -2.17836000       4.09826000       0.10579000
H       -5.46548000       1.95866000       4.21973000       0.10578000
N       -4.30369000       1.41568000       1.80191000      -0.35177000
N       -4.47703000      -1.40273000       1.97553000      -0.34217000
H       -5.19357000      -1.66009000       1.29235000       0.20513000
H       -3.67003000       1.65138000       2.57679000       0.21209000
C       -3.85944000      -2.62674000       2.52796000      -0.08953000
H       -4.50542000      -3.06225000       3.30208000       0.10519000
H       -2.94538000      -2.31695000       3.04595000       0.10051000
C       -4.54431000       2.63177000       0.96828000      -0.09947000
H       -3.74718000       2.65263000       0.22453000       0.11853000
H       -5.47413000       2.47024000       0.41790000       0.10935000
C       -4.57098000       3.94164000       1.72679000      -0.05296000
C       -3.53836000       4.30346000       2.60388000      -0.10823000
C       -5.60990000       4.85888000       1.54411000      -0.09508000
C       -3.55051000       5.52337000       3.27287000      -0.11478000
H       -2.71325000       3.62343000       2.80094000       0.11523000
C       -5.63387000       6.08735000       2.20113000      -0.13870000
H       -6.43147000       4.60818000       0.87535000       0.10662000
C       -4.59343000       6.45842000       3.08092000       0.09283000
H       -2.73388000       5.74019000       3.95093000       0.11031000
H       -6.47250000       6.75051000       2.02573000       0.10929000
C       -3.54642000      -3.70884000       1.51529000      -0.04816000
C       -3.95461000      -3.68429000       0.17957000      -0.09275000
C       -2.83373000      -4.83272000       1.95164000      -0.09817000
C       -3.67771000      -4.74488000      -0.68063000      -0.13415000
H       -4.45047000      -2.81369000      -0.23896000       0.11772000
C       -2.53093000      -5.89082000       1.10049000      -0.13834000
H       -2.49297000      -4.88369000       2.98483000       0.10681000
C       -2.96034000      -5.88089000      -0.24767000       0.09499000
H       -4.00738000      -4.65799000      -1.70870000       0.11197000
H       -1.96586000      -6.72639000       1.49569000       0.11057000
O        2.65853000      -5.39462000       2.15144000      -0.27319000
C        4.07020000      -5.54492000       2.12533000      -0.11047000
H        4.54199000      -5.08012000       3.00165000       0.08975000
H        4.25767000      -6.62014000       2.14325000       0.09962000
H        4.50516000      -5.11583000       1.21238000       0.08941000
N       -4.58959000       7.69590000       3.72609000      -0.25681000
C       -5.80397000       8.49285000       3.71034000      -0.18193000
C       -3.66526000       7.90409000       4.82843000      -0.18228000
H       -5.63131000       9.42206000       4.25798000       0.10255000
H       -6.07909000       8.76447000       2.68440000       0.09917000
H       -6.66481000       7.97579000       4.16705000       0.09187000
H       -3.81000000       7.18580000       5.65249000       0.09277000
H       -2.62658000       7.82206000       4.48807000       0.09949000
H       -3.79996000       8.91346000       5.22369000       0.10218000
N       -2.68042000      -6.94291000      -1.10622000      -0.25574000
C       -1.67076000      -7.90949000      -0.70595000      -0.18196000
C       -2.90024000      -6.75930000      -2.53167000      -0.18179000
H       -1.55082000      -8.65229000      -1.49736000       0.10351000
H       -0.68841000      -7.44673000      -0.51126000       0.09210000
H       -1.97788000      -8.44464000       0.20001000       0.09941000
H       -3.95454000      -6.54547000      -2.73797000       0.10123000
H       -2.29746000      -5.93942000      -2.95814000       0.09124000
H       -2.64524000      -7.68276000      -3.05599000       0.10312000
