92
R1TS1minorsNMe2.xyz  (col5 = NBO charge)
O       -2.34102000       1.30641000       3.93713000      -0.27230000
N       -1.34246000       1.18091000       3.16043000       0.23034000
C       -1.02322000      -0.08226000       2.70717000      -0.11848000
C        0.21566000      -0.30481000       2.04206000      -0.05286000
C        0.83999000      -1.64244000       2.08704000      -0.07086000
O       -1.91482000      -1.44661000      -0.02482000      -0.33494000
C       -0.73702000      -1.20199000      -0.33976000       0.41884000
C       -0.00060000      -0.00048000       0.00572000      -0.22177000
C       -0.71305000       1.25873000      -0.03041000       0.41987000
O       -1.93565000       1.38714000       0.15530000      -0.33878000
Ni      -3.25029000      -0.08383000       0.80248000       1.35421000
O        0.01116000      -2.11815000      -0.95685000      -0.26099000
C       -0.62318000      -3.38578000      -1.22056000      -0.11386000
C       -0.56218000       3.60459000      -0.05738000      -0.11320000
H       -1.35180000       3.73831000      -0.80186000       0.09638000
H        0.90855000       0.52943000       2.12126000       0.12908000
H       -1.60816000      -0.86251000       3.16430000       0.11502000
H       -1.51121000      -3.24357000      -1.83927000       0.10061000
H       -0.91018000      -3.86934000      -0.28617000       0.10098000
O        0.07132000       2.31875000      -0.22308000      -0.26203000
H        0.12917000      -3.97589000      -1.74424000       0.09814000
H        0.23322000       4.33485000      -0.20612000       0.09807000
H       -0.98053000       3.67914000       0.94864000       0.10606000
O       -0.67169000       2.17776000       2.79872000      -0.25064000
C        2.23468000      -1.77517000       2.00354000      -0.07599000
C        0.09010000      -2.82778000       2.15111000      -0.08842000
C        2.85588000      -3.01700000       1.99892000      -0.13701000
H        2.85048000      -0.88099000       1.93560000       0.10926000
C        0.69006000      -4.07742000       2.13975000      -0.13820000
H       -0.99171000      -2.78475000       2.15383000       0.10995000
C        2.09757000      -4.21091000       2.06983000       0.10979000
H        3.93627000      -3.05461000       1.93113000       0.11219000
H        0.04852000      -4.94929000       2.16323000       0.11211000
H        1.02520000       0.03007000      -0.34260000       0.13139000
Br      -4.92705000      -0.19379000      -1.04819000      -0.28461000
C       -6.96723000      -0.36762000       4.76495000      -0.19399000
C       -7.36493000       0.98406000       4.16438000      -0.19326000
C       -6.15429000       1.67132000       3.52193000      -0.20414000
C       -5.47960000       0.78183000       2.46214000      -0.01139000
C       -5.08277000      -0.58348000       3.06336000      -0.01335000
C       -6.30971000      -1.25949000       3.70297000      -0.20006000
H       -6.45427000       2.61790000       3.06513000       0.11242000
H       -8.14361000       0.82809000       3.40339000       0.09873000
H       -7.79988000       1.63526000       4.93195000       0.10611000
H       -6.25967000      -0.20675000       5.59092000       0.10040000
H       -7.83961000      -0.87901000       5.18960000       0.10509000
H       -6.17263000       0.59510000       1.63167000       0.11074000
H       -4.30755000      -0.40621000       3.81997000       0.11263000
H       -7.03745000      -1.47859000       2.90678000       0.10247000
H       -6.03234000      -2.21966000       4.15073000       0.10546000
H       -5.41090000       1.91939000       4.29250000       0.10620000
N       -4.27629000       1.40136000       1.86085000      -0.35260000
N       -4.44631000      -1.42241000       2.00064000      -0.34256000
H       -5.17217000      -1.66082000       1.32033000       0.20557000
H       -3.63678000       1.63234000       2.63290000       0.21267000
C       -3.83079000      -2.65751000       2.52466000      -0.09396000
H       -4.46618000      -3.10426000       3.30065000       0.10766000
H       -2.90506000      -2.36617000       3.03089000       0.10372000
C       -4.53088000       2.61741000       1.03714000      -0.10301000
H       -3.73194000       2.65917000       0.29588000       0.12119000
H       -5.45682000       2.44894000       0.48304000       0.11085000
C       -4.57121000       3.92794000       1.79939000      -0.02421000
C       -3.54089000       4.28114000       2.68499000      -0.11346000
C       -5.61738000       4.83401000       1.58537000      -0.10868000
C       -3.57246000       5.50965000       3.34672000      -0.10105000
H       -2.71659000       3.59956000       2.87880000       0.11757000
C       -5.64469000       6.06629000       2.24235000      -0.10529000
H       -6.41930000       4.56977000       0.89892000       0.10811000
C       -4.62147000       6.40664000       3.12869000      -0.11168000
H       -2.77085000       5.76511000       4.03490000       0.10910000
H       -6.46666000       6.75524000       2.06490000       0.10808000
H       -4.64117000       7.36239000       3.64594000       0.10789000
C       -3.54249000      -3.73717000       1.49882000      -0.02049000
C       -3.95043000      -3.67414000       0.16340000      -0.10613000
C       -2.86771000      -4.88369000       1.94738000      -0.11102000
C       -3.70652000      -4.74937000      -0.69680000      -0.10080000
H       -4.41911000      -2.78096000      -0.23813000       0.11982000
C       -2.60878000      -5.94781000       1.08464000      -0.10819000
H       -2.54346000      -4.94111000       2.98518000       0.10801000
C       -3.03685000      -5.88648000      -0.24545000      -0.11318000
H       -4.03374000      -4.68179000      -1.73088000       0.11087000
H       -2.08418000      -6.82631000       1.45215000       0.10826000
H       -2.84696000      -6.71672000      -0.92045000       0.10898000
N        2.70079000      -5.45671000       2.06799000      -0.24783000
C        4.12754000      -5.56141000       1.81069000      -0.18229000
C        1.87533000      -6.64560000       1.93380000      -0.18215000
H        4.42636000      -6.61010000       1.85997000       0.10445000
H        4.40821000      -5.16796000       0.82101000       0.09512000
H        4.70428000      -5.01760000       2.56876000       0.10025000
H        1.17773000      -6.73856000       2.77564000       0.09925000
H        1.28595000      -6.64672000       1.00311000       0.09489000
H        2.51457000      -7.53028000       1.93599000       0.10483000
