92
R1TS8minorsNO2.xyz  (col5 = NBO charge)
O       -2.41841000       1.29808000       3.88407000      -0.26592000
N       -1.37957000       1.19650000       3.16457000       0.23163000
C       -1.00439000      -0.06605000       2.74284000      -0.11025000
C        0.21793000      -0.25716000       2.06403000      -0.06642000
C        0.86531000      -1.59284000       2.08660000      -0.01545000
O       -1.91757000      -1.43826000      -0.02755000      -0.33630000
C       -0.73342000      -1.20791000      -0.33312000       0.41666000
C        0.00089000      -0.00012000      -0.00225000      -0.21731000
C       -0.71327000       1.26093000      -0.02547000       0.41842000
O       -1.93777000       1.38215000       0.15441000      -0.33944000
Ni      -3.30528000      -0.08141000       0.71474000       1.35949000
O        0.02371000      -2.14136000      -0.90658000      -0.26728000
C       -0.59958000      -3.43437000      -1.14740000      -0.02890000
C       -0.55363000       3.62280000      -0.01258000      -0.02471000
H       -1.27738000       3.76761000      -0.82137000       0.09698000
H        0.89875000       0.58779000       2.12383000       0.13177000
H       -1.62003000      -0.85526000       3.13938000       0.11477000
H       -1.37881000      -3.30157000      -1.90288000       0.10029000
H       -1.08067000      -3.76880000      -0.22828000       0.10258000
O        0.07241000       2.32062000      -0.18706000      -0.26664000
H       -1.08818000       3.61644000       0.93999000       0.10681000
O       -0.71098000       2.20284000       2.83344000      -0.24566000
C        2.26490000      -1.68437000       2.00249000      -0.08971000
C        0.11546000      -2.78116000       2.14453000      -0.10230000
C        2.90374000      -2.91949000       1.97672000      -0.08735000
H        2.85761000      -0.77530000       1.95119000       0.11632000
C        0.73553000      -4.02246000       2.10478000      -0.08946000
H       -0.96589000      -2.74438000       2.15933000       0.11717000
C        2.12607000      -4.07606000       2.02105000       0.02831000
H        3.98173000      -3.00124000       1.91322000       0.12786000
H        0.15642000      -4.93715000       2.11256000       0.12767000
H        1.02749000       0.03242000      -0.34838000       0.13158000
Br      -4.91668000      -0.19901000      -1.16698000      -0.27936000
C       -7.08797000      -0.35600000       4.60731000      -0.19405000
C       -7.47001000       0.99680000       3.99843000      -0.19334000
C       -6.24500000       1.68296000       3.38201000      -0.20410000
C       -5.55061000       0.79131000       2.33740000      -0.01152000
C       -5.16767000      -0.57332000       2.94878000      -0.01310000
C       -6.40840000      -1.24919000       3.56016000      -0.20019000
H       -6.53329000       2.63001000       2.91849000       0.11273000
H       -8.23248000       0.84271000       3.22095000       0.09905000
H       -7.91998000       1.64846000       4.75667000       0.10654000
H       -6.39912000      -0.19699000       5.44924000       0.10038000
H       -7.97061000      -0.86576000       5.01170000       0.10570000
H       -6.22713000       0.60447000       1.49346000       0.11102000
H       -4.41052000      -0.39553000       3.72341000       0.11199000
H       -7.11842000      -1.46712000       2.74791000       0.10285000
H       -6.14094000      -2.20992000       4.01282000       0.10599000
H       -5.51777000       1.92987000       4.16832000       0.10603000
N       -4.33428000       1.40762000       1.75748000      -0.35136000
N       -4.50514000      -1.41473000       1.90348000      -0.34212000
H       -5.21836000      -1.67254000       1.21703000       0.20585000
H       -3.70661000       1.63878000       2.53807000       0.21198000
C       -3.87823000      -2.63500000       2.45037000      -0.09339000
H       -4.51963000      -3.08220000       3.22118000       0.10868000
H       -2.96669000      -2.32133000       2.96966000       0.10198000
C       -4.56918000       2.62312000       0.92602000      -0.10247000
H       -3.75764000       2.65956000       0.19791000       0.12077000
H       -5.48613000       2.45642000       0.35677000       0.11130000
C       -4.61714000       3.93538000       1.68455000      -0.02486000
C       -3.60529000       4.28383000       2.59286000      -0.11385000
C       -5.65077000       4.84870000       1.44269000      -0.10814000
C       -3.64139000       5.51549000       3.24849000      -0.10084000
H       -2.79143000       3.59701000       2.81033000       0.11631000
C       -5.68284000       6.08391000       2.09382000      -0.10456000
H       -6.43859000       4.58849000       0.73871000       0.10843000
C       -4.67746000       6.41998000       3.00198000      -0.11104000
H       -2.85406000       5.76719000       3.95422000       0.10932000
H       -6.49475000       6.77865000       1.89468000       0.10852000
H       -4.70123000       7.37810000       3.51442000       0.10830000
C       -3.55439000      -3.71998000       1.44068000      -0.02124000
C       -3.96816000      -3.69091000       0.10566000      -0.10659000
C       -2.84130000      -4.83706000       1.90491000      -0.11318000
C       -3.69339000      -4.77179000      -0.73812000      -0.10005000
H       -4.46297000      -2.81830000      -0.30954000       0.11886000
C       -2.55142000      -5.90685000       1.05847000      -0.10666000
H       -2.51551000      -4.87039000       2.94351000       0.10791000
C       -2.98751000      -5.88027000      -0.27030000      -0.11209000
H       -4.02383000      -4.73074000      -1.77243000       0.11136000
H       -1.99425000      -6.76018000       1.43590000       0.11102000
H       -2.77291000      -6.71479000      -0.93218000       0.11014000
C        0.49344000      -4.38331000      -1.59187000      -0.30192000
H        1.24858000      -4.49455000      -0.80773000       0.10472000
H        0.05757000      -5.36798000      -1.79053000       0.11051000
H        0.98366000      -4.02641000      -2.50299000       0.10664000
C        0.55690000       4.65305000      -0.03853000      -0.30245000
H        0.12949000       5.65402000       0.08329000       0.10987000
H        1.26109000       4.47538000       0.78023000       0.10637000
H        1.10423000       4.62126000      -0.98620000       0.10474000
N        2.78588000      -5.38849000       1.95528000       0.25133000
O        2.06517000      -6.38595000       1.89916000      -0.19615000
O        4.01608000      -5.41141000       1.95402000      -0.19380000
