100
R1TS1majorcNMe2.xyz  (col5 = NBO charge)
O       -2.21399000       0.18351000      -2.58094000      -0.28577000
N       -1.64975000      -0.90807000      -2.97257000       0.22393000
C       -0.32461000      -1.08756000      -2.74001000      -0.07313000
C        0.43557000      -0.07643000      -2.11171000      -0.04593000
C        1.90686000      -0.18547000      -2.05309000      -0.04267000
O       -1.90718000       1.48571000       0.00202000      -0.31846000
C       -0.69560000       1.26981000       0.11420000       0.41482000
C        0.00161000       0.00027000      -0.00075000      -0.23350000
C       -0.72280000      -1.24128000       0.12385000       0.41738000
O       -1.92815000      -1.42671000      -0.08822000      -0.32603000
Ni      -3.38525000       0.07199000      -0.64194000       1.34078000
O        0.16307000       2.28957000       0.29125000      -0.26903000
C       -0.43025000       3.60453000       0.35741000      -0.11455000
C       -0.55313000      -3.57874000       0.36749000      -0.11263000
H       -1.29637000      -3.63851000       1.16698000       0.09971000
H        0.04654000       0.92749000      -2.24659000       0.12334000
H        0.05555000      -2.05352000      -3.03514000       0.11650000
H       -1.12277000       3.67127000       1.19849000       0.10185000
H       -0.98306000       3.83003000      -0.55735000       0.09982000
O        0.08610000      -2.28808000       0.36904000      -0.26838000
H        0.40886000       4.28875000       0.48654000       0.09661000
H        0.24988000      -4.29702000       0.53484000       0.09818000
H       -1.04646000      -3.76257000      -0.59122000       0.09747000
O       -2.32526000      -1.79157000      -3.56424000      -0.25418000
C        2.68180000       0.98462000      -2.10860000      -0.09035000
C        2.55902000      -1.42263000      -1.91076000      -0.09415000
C        4.07304000       0.91984000      -2.05488000      -0.10443000
H        2.18378000       1.94731000      -2.18813000       0.11090000
C        3.94917000      -1.48562000      -1.85334000      -0.10352000
H        1.97330000      -2.33112000      -1.81310000       0.11070000
C        4.71162000      -0.31623000      -1.93104000      -0.10043000
H        4.65824000       1.83385000      -2.10639000       0.11083000
H        4.44006000      -2.44851000      -1.74138000       0.11061000
H        5.79596000      -0.36847000      -1.88666000       0.11031000
H        1.01470000      -0.00692000       0.37812000       0.13360000
Br      -4.72303000       0.07804000       1.47437000      -0.29274000
C       -7.39163000       0.59716000      -4.22977000      -0.19423000
C       -7.76530000      -0.78898000      -3.69462000      -0.19347000
C       -6.52730000      -1.52789000      -3.17105000      -0.20376000
C       -5.77258000      -0.71969000      -2.09818000      -0.01137000
C       -5.40010000       0.68049000      -2.64158000      -0.01054000
C       -6.65747000       1.40643000      -3.15322000      -0.20008000
H       -6.81006000      -2.50124000      -2.76422000       0.11364000
H       -8.49470000      -0.67721000      -2.87885000       0.09836000
H       -8.25385000      -1.38682000      -4.47369000       0.10507000
H       -6.73977000       0.48667000      -5.10849000       0.09923000
H       -8.28403000       1.14089000      -4.56340000       0.10431000
H       -6.41029000      -0.57800000      -1.21565000       0.10765000
H       -4.67880000       0.54524000      -3.45647000       0.11136000
H       -7.33127000       1.57198000      -2.29870000       0.10133000
H       -6.39195000       2.39647000      -3.54010000       0.10611000
H       -5.83470000      -1.72802000      -4.00168000       0.10332000
N       -4.54726000      -1.39549000      -1.61043000      -0.34270000
N       -4.68706000       1.46217000      -1.59386000      -0.33013000
H       -5.36109000       1.72682000      -0.87293000       0.20264000
H       -3.96284000      -1.64185000      -2.41812000       0.21058000
C       -3.99006000       2.66619000      -2.11026000      -0.09354000
H       -4.52147000       3.06718000      -2.98369000       0.10129000
H       -3.01287000       2.32712000      -2.46726000       0.11386000
C       -4.74967000      -2.60344000      -0.75933000      -0.10158000
H       -3.83594000      -2.70372000      -0.16973000       0.11586000
H       -5.54420000      -2.36794000      -0.04841000       0.11153000
C       -5.02630000      -3.89302000      -1.49989000      -0.05064000
C       -4.11903000      -4.39407000      -2.44317000      -0.09724000
C       -6.17084000      -4.65363000      -1.24407000      -0.09405000
C       -4.35368000      -5.58762000      -3.11802000      -0.13494000
H       -3.21309000      -3.83617000      -2.66954000       0.11243000
C       -6.42001000      -5.85489000      -1.90452000      -0.13844000
H       -6.89035000      -4.30219000      -0.50693000       0.10762000
C       -5.52161000      -6.34808000      -2.87655000       0.09910000
H       -3.61727000      -5.92465000      -3.83779000       0.10948000
H       -7.32185000      -6.40243000      -1.65828000       0.10975000
C       -3.82456000       3.77846000      -1.09603000      -0.04751000
C       -3.99756000       3.61579000       0.28162000      -0.09630000
C       -3.42023000       5.04025000      -1.54885000      -0.09686000
C       -3.78562000       4.66989000       1.16803000      -0.13621000
H       -4.26143000       2.64940000       0.69985000       0.12004000
C       -3.18448000       6.09782000      -0.67518000      -0.13904000
H       -3.27163000       5.20481000      -2.61526000       0.10589000
C       -3.37665000       5.94363000       0.71737000       0.09496000
H       -3.93122000       4.47640000       2.22395000       0.11184000
H       -2.86378000       7.04705000      -1.08750000       0.10933000
N       -5.77912000      -7.52755000      -3.57480000      -0.25512000
C       -4.71091000      -8.12525000      -4.35745000      -0.18197000
C       -6.83959000      -8.40136000      -3.10296000      -0.18199000
H       -5.08091000      -9.03597000      -4.83353000       0.10280000
H       -4.38525000      -7.44794000      -5.15565000       0.09959000
H       -3.82715000      -8.38566000      -3.75119000       0.09204000
H       -6.68064000      -8.75067000      -2.06907000       0.09248000
H       -7.81069000      -7.89376000      -3.14226000       0.09920000
H       -6.90217000      -9.27530000      -3.75506000       0.10283000
N       -3.17940000       7.00463000       1.60255000      -0.25589000
C       -3.10961000       6.71504000       3.02548000      -0.18185000
C       -2.47663000       8.18386000       1.12734000      -0.18171000
H       -2.95194000       7.64626000       3.57416000       0.10240000
H       -4.05027000       6.28021000       3.38087000       0.10108000
H       -2.29491000       6.01701000       3.28288000       0.09158000
H       -1.45992000       7.96114000       0.76044000       0.09076000
H       -3.03005000       8.66765000       0.31414000       0.09926000
H       -2.39685000       8.90738000       1.94166000       0.10306000
