106
R1TS8majorcNMe2.xyz  (col5 = NBO charge)
O       -2.20987000       0.16123000      -2.58867000      -0.28524000
N       -1.63652000      -0.92826000      -2.97007000       0.22439000
C       -0.30798000      -1.09223000      -2.74061000      -0.07371000
C        0.44021000      -0.07119000      -2.11667000      -0.04489000
C        1.91139000      -0.15942000      -2.04714000      -0.04275000
O       -1.90815000       1.48194000      -0.00301000      -0.31975000
C       -0.69562000       1.26940000       0.11693000       0.41516000
C        0.00174000       0.00073000       0.00536000      -0.23270000
C       -0.71960000      -1.24328000       0.11187000       0.41709000
O       -1.93050000      -1.42099000      -0.08005000      -0.32764000
Ni      -3.38210000       0.07570000      -0.64825000       1.34324000
O        0.15998000       2.29029000       0.29525000      -0.27444000
C       -0.43345000       3.61574000       0.35076000      -0.02769000
C       -0.52832000      -3.60289000       0.25277000      -0.02310000
H       -1.23683000      -3.69081000       1.08269000       0.09919000
H        0.03623000       0.92719000      -2.24727000       0.12364000
H        0.07961000      -2.05742000      -3.02827000       0.11618000
H       -1.11515000       3.65814000       1.20350000       0.10054000
H       -1.03388000       3.77860000      -0.54753000       0.10171000
O        0.09366000      -2.29494000       0.30771000      -0.27460000
H       -1.09630000      -3.68779000      -0.67928000       0.09736000
O       -2.30481000      -1.82515000      -3.54930000      -0.25320000
C        2.66745000       1.02461000      -2.06158000      -0.09006000
C        2.58292000      -1.38877000      -1.92914000      -0.09391000
C        4.05852000       0.98161000      -1.99085000      -0.10455000
H        2.15358000       1.98053000      -2.11852000       0.11073000
C        3.97308000      -1.43018000      -1.85514000      -0.10369000
H        2.01219000      -2.30947000      -1.86385000       0.10997000
C        4.71650000      -0.24668000      -1.89159000      -0.10029000
H        4.62876000       1.90628000      -2.00964000       0.11077000
H        4.47869000      -2.38748000      -1.76222000       0.11049000
H        5.80092000      -0.28203000      -1.83424000       0.11027000
H        1.01686000      -0.00803000       0.37813000       0.13299000
Br      -4.75243000       0.13376000       1.44883000      -0.29391000
C       -7.40197000       0.43695000      -4.24908000      -0.19418000
C       -7.76145000      -0.93115000      -3.66029000      -0.19351000
C       -6.51374000      -1.63759000      -3.11592000      -0.20354000
C       -5.76167000      -0.78180000      -2.07940000      -0.01122000
C       -5.40486000       0.60149000      -2.67270000      -0.01073000
C       -6.67176000       1.29418000      -3.20730000      -0.20005000
H       -6.78394000      -2.59763000      -2.66957000       0.11288000
H       -8.48790000      -0.79495000      -2.84565000       0.09838000
H       -8.24825000      -1.56200000      -4.41402000       0.10502000
H       -6.75217000       0.29868000      -5.12539000       0.09927000
H       -8.30036000       0.95953000      -4.59996000       0.10431000
H       -6.39540000      -0.61393000      -1.19870000       0.10798000
H       -4.68337000       0.44579000      -3.48379000       0.11128000
H       -7.34429000       1.48568000      -2.35721000       0.10131000
H       -6.41855000       2.27086000      -3.63402000       0.10607000
H       -5.82396000      -1.86320000      -3.94233000       0.10347000
N       -4.52899000      -1.42956000      -1.57430000      -0.34327000
N       -4.69787000       1.42704000      -1.65366000      -0.33037000
H       -5.37342000       1.70763000      -0.94019000       0.20234000
H       -3.94294000      -1.69159000      -2.37558000       0.21046000
C       -4.01993000       2.61840000      -2.21776000      -0.09412000
H       -4.59166000       3.01517000      -3.06787000       0.10125000
H       -3.06522000       2.26605000      -2.61967000       0.11429000
C       -4.72562000      -2.61690000      -0.69202000      -0.10202000
H       -3.84028000      -2.66520000      -0.05527000       0.11686000
H       -5.56335000      -2.39244000      -0.02870000       0.11091000
C       -4.91669000      -3.93827000      -1.40323000      -0.05064000
C       -3.95314000      -4.42564000      -2.29666000      -0.09758000
C       -6.03174000      -4.74577000      -1.16099000      -0.10400000
C       -4.10509000      -5.65162000      -2.93632000      -0.13525000
H       -3.06948000      -3.83066000      -2.51546000       0.11227000
C       -6.19821000      -5.97982000      -1.78607000      -0.11259000
H       -6.79348000      -4.40635000      -0.46160000       0.10723000
C       -5.24231000      -6.46083000      -2.70797000       0.09090000
H       -3.32823000      -5.97488000      -3.61892000       0.10931000
H       -7.08115000      -6.56247000      -1.55215000       0.10597000
C       -3.79019000       3.74317000      -1.22962000      -0.04601000
C       -3.98601000       3.63374000       0.14968000      -0.09526000
C       -3.30434000       4.96328000      -1.71571000      -0.09708000
C       -3.71310000       4.69846000       1.00655000      -0.13507000
H       -4.30803000       2.69754000       0.59517000       0.11962000
C       -3.00681000       6.02884000      -0.87123000      -0.13862000
H       -3.13581000       5.08503000      -2.78487000       0.10604000
C       -3.21503000       5.92726000       0.52373000       0.09296000
H       -3.87434000       4.54429000       2.06656000       0.11186000
H       -2.62026000       6.94184000      -1.30809000       0.10940000
C        0.58726000      -4.62637000       0.34081000      -0.30178000
H        0.16621000      -5.63699000       0.31248000       0.10956000
H        1.28198000      -4.51725000      -0.49905000       0.10237000
H        1.15126000      -4.50931000       1.27150000       0.10646000
C        0.70176000       4.61215000       0.47034000      -0.30165000
H        1.37227000       4.54878000      -0.39364000       0.10305000
H        0.28784000       5.62570000       0.51241000       0.10801000
H        1.28937000       4.43552000       1.37714000       0.10519000
N       -5.41689000      -7.67486000      -3.37198000      -0.25630000
C       -4.29388000      -8.24414000      -4.09678000      -0.18200000
C       -6.44934000      -8.58421000      -2.90524000      -0.18228000
H       -4.60203000      -9.18739000      -4.55321000       0.10269000
H       -3.97346000      -7.57814000      -4.90653000       0.09960000
H       -3.42044000      -8.44016000      -3.45241000       0.09184000
H       -6.31059000      -8.88919000      -1.85454000       0.09242000
H       -7.44222000      -8.12788000      -2.99595000       0.09910000
H       -6.44548000      -9.48216000      -3.52700000       0.10274000
N       -2.94379000       6.99645000       1.38196000      -0.25726000
C       -2.88052000       6.73248000       2.81062000      -0.18188000
C       -2.13808000       8.09639000       0.88092000      -0.18150000
H       -2.65936000       7.66319000       3.33798000       0.10241000
H       -3.84401000       6.36690000       3.18147000       0.10128000
H       -2.10983000       5.98909000       3.07735000       0.09135000
H       -1.13707000       7.77849000       0.53952000       0.08953000
H       -2.63631000       8.59627000       0.04268000       0.09968000
H       -2.01055000       8.83830000       1.67236000       0.10324000
