98
R1TS8minorsNMe2.xyz  (col5 = NBO charge)
O       -2.31318000       1.29425000       3.94536000      -0.27384000
N       -1.31498000       1.17091000       3.16677000       0.22968000
C       -0.99646000      -0.08951000       2.71021000      -0.11721000
C        0.23421000      -0.31021000       2.02869000      -0.05414000
C        0.85753000      -1.65001000       2.05765000      -0.06910000
O       -1.91585000      -1.44404000      -0.02573000      -0.33556000
C       -0.73532000      -1.20565000      -0.33730000       0.42061000
C       -0.00078000      -0.00033000       0.00207000      -0.22033000
C       -0.71260000       1.26100000      -0.02762000       0.41977000
O       -1.93659000       1.38581000       0.15460000      -0.33911000
Ni      -3.24986000      -0.08419000       0.80129000       1.35600000
O        0.02038000      -2.13071000      -0.92750000      -0.26677000
C       -0.58378000      -3.43410000      -1.13866000      -0.02836000
C       -0.54858000       3.62097000      -0.01193000      -0.02467000
H       -1.27489000       3.77880000      -0.81625000       0.09601000
H        0.92914000       0.52273000       2.10479000       0.12911000
H       -1.58457000      -0.87032000       3.16193000       0.11445000
H       -1.37473000      -3.33106000      -1.88690000       0.09860000
H       -1.04335000      -3.76455000      -0.20722000       0.10379000
O        0.07263000       2.32066000      -0.20292000      -0.26739000
H       -1.07887000       3.60665000       0.94285000       0.10708000
O       -0.64518000       2.17022000       2.80767000      -0.25194000
C        2.24406000      -1.78873000       1.89054000      -0.07565000
C        0.10958000      -2.83254000       2.16919000      -0.08671000
C        2.85850000      -3.03296000       1.84067000      -0.13682000
H        2.85802000      -0.89694000       1.78491000       0.10920000
C        0.70237000      -4.08468000       2.11717000      -0.13982000
H       -0.96959000      -2.78695000       2.24088000       0.10908000
C        2.10066000      -4.22429000       1.95035000       0.10608000
H        3.93204000      -3.07439000       1.70309000       0.11229000
H        0.05984000      -4.95393000       2.17471000       0.11228000
H        1.02380000       0.03124000      -0.34982000       0.13089000
Br      -4.94369000      -0.17883000      -1.03337000      -0.28504000
C       -6.92996000      -0.37989000       4.79775000      -0.19398000
C       -7.32622000       0.97871000       4.21182000      -0.19325000
C       -6.11821000       1.66433000       3.56273000      -0.20413000
C       -5.45987000       0.77949000       2.48877000      -0.01124000
C       -5.06397000      -0.59253000       3.07559000      -0.01334000
C       -6.28791000      -1.26706000       3.72236000      -0.20007000
H       -6.41703000       2.61634000       3.11644000       0.11243000
H       -8.11319000       0.83292000       3.45736000       0.09869000
H       -7.75005000       1.62605000       4.98882000       0.10607000
H       -6.21321000      -0.22935000       5.61771000       0.10039000
H       -7.80085000      -0.88985000       5.22717000       0.10502000
H       -6.16359000       0.60311000       1.66496000       0.11063000
H       -4.28064000      -0.42400000       3.82586000       0.11251000
H       -7.02470000      -1.47629000       2.93186000       0.10245000
H       -6.01100000      -2.23207000       4.15995000       0.10545000
H       -5.36549000       1.90166000       4.32758000       0.10623000
N       -4.25990000       1.39780000       1.87964000      -0.35307000
N       -4.44133000      -1.42728000       2.00143000      -0.34252000
H       -5.17374000      -1.65818000       1.32552000       0.20555000
H       -3.61164000       1.62129000       2.64690000       0.21287000
C       -3.82494000      -2.66740000       2.51203000      -0.09387000
H       -4.45869000      -3.12181000       3.28508000       0.10763000
H       -2.89879000      -2.37938000       3.01952000       0.10340000
C       -4.51753000       2.61899000       1.06470000      -0.10297000
H       -3.72458000       2.66242000       0.31703000       0.12143000
H       -5.44821000       2.45576000       0.51697000       0.11077000
C       -4.54802000       3.92678000       1.83226000      -0.02418000
C       -3.51272000       4.27280000       2.71497000      -0.11366000
C       -5.58954000       4.83940000       1.62308000      -0.10865000
C       -3.53429000       5.50122000       3.37738000      -0.10111000
H       -2.69236000       3.58604000       2.90671000       0.11787000
C       -5.60711000       6.07121000       2.28120000      -0.10533000
H       -6.39537000       4.58080000       0.93907000       0.10808000
C       -4.57842000       6.40488000       3.16379000      -0.11181000
H       -2.72865000       5.75103000       4.06295000       0.10907000
H       -6.42568000       6.76514000       2.10742000       0.10804000
H       -4.59038000       7.36040000       3.68173000       0.10784000
C       -3.53678000      -3.73801000       1.47643000      -0.01988000
C       -3.95043000      -3.66618000       0.14299000      -0.10564000
C       -2.85441000      -4.88487000       1.91259000      -0.11109000
C       -3.70324000      -4.73239000      -0.72738000      -0.10033000
H       -4.42467000      -2.77192000      -0.24939000       0.11997000
C       -2.59306000      -5.94042000       1.03994000      -0.10801000
H       -2.52622000      -4.94965000       2.94878000       0.10788000
C       -3.02617000      -5.87000000      -0.28801000      -0.11341000
H       -4.03257000      -4.65671000      -1.76012000       0.11098000
H       -2.06167000      -6.81878000       1.39782000       0.10827000
H       -2.83403000      -6.69329000      -0.97092000       0.10886000
C        0.52430000      -4.36790000      -1.58047000      -0.30279000
H        1.29774000      -4.42466000      -0.80821000       0.10694000
H        0.11179000      -5.37051000      -1.73911000       0.10746000
H        0.98400000      -4.02722000      -2.51381000       0.10569000
C        0.56521000       4.64833000      -0.02962000      -0.30221000
H        0.14218000       5.64969000       0.10473000       0.10908000
H        1.27058000       4.45786000       0.78524000       0.10645000
H        1.11036000       4.62501000      -0.97897000       0.10402000
N        2.69491000      -5.47444000       1.88871000      -0.24910000
C        4.09423000      -5.58011000       1.50852000      -0.18211000
C        1.85095000      -6.65228000       1.76537000      -0.18215000
H        4.39235000      -6.63010000       1.52216000       0.10458000
H        4.29120000      -5.17689000       0.50243000       0.09478000
H        4.73481000      -5.04633000       2.22056000       0.10056000
H        1.20063000      -6.76376000       2.64166000       0.09960000
H        1.21160000      -6.62092000       0.86871000       0.09491000
H        2.48090000      -7.54178000       1.70774000       0.10497000
