90
R1TS1majorsNO2cNO2.xyz  (col5 = NBO charge)
O       -2.30203000       0.17508000      -2.56758000      -0.28148000
N       -1.74557000      -0.91576000      -2.96325000       0.22760000
C       -0.41041000      -1.09215000      -2.76503000      -0.07163000
C        0.35858000      -0.07780000      -2.16716000      -0.04791000
C        1.82908000      -0.17897000      -2.12361000      -0.02337000
O       -1.90644000       1.49561000      -0.00127000      -0.32227000
C       -0.69471000       1.27068000       0.11796000       0.41383000
C       -0.00465000      -0.00016000      -0.00038000      -0.23264000
C       -0.71895000      -1.24472000       0.11991000       0.41638000
O       -1.92737000      -1.43361000      -0.08511000      -0.32968000
Ni      -3.39260000       0.06057000      -0.57962000       1.33791000
O        0.17105000       2.27966000       0.30667000      -0.26667000
C       -0.40152000       3.59974000       0.41492000      -0.11373000
C       -0.53180000      -3.58305000       0.37921000      -0.11238000
H       -1.25756000      -3.63673000       1.19486000       0.10020000
H       -0.04383000       0.92345000      -2.27429000       0.12532000
H       -0.03992000      -2.06168000      -3.06102000       0.11897000
H       -1.06586000       3.65431000       1.27952000       0.10115000
H       -0.97147000       3.85030000      -0.48300000       0.09698000
O        0.09636000      -2.28627000       0.35134000      -0.26668000
H        0.44811000       4.27110000       0.53766000       0.10038000
H        0.28011000      -4.29184000       0.54117000       0.10050000
H       -1.04026000      -3.78431000      -0.56804000       0.09610000
O       -2.43215000      -1.80889000      -3.52332000      -0.24751000
C        2.59555000       0.99871000      -2.17651000      -0.08746000
C        2.48810000      -1.41606000      -1.99859000      -0.09094000
C        3.98431000       0.94972000      -2.13725000      -0.09011000
H        2.09378000       1.95945000      -2.24244000       0.11634000
C        3.87518000      -1.47969000      -1.95513000      -0.08998000
H        1.91112000      -2.32927000      -1.90303000       0.11596000
C        4.60550000      -0.29355000      -2.03168000       0.03588000
H        4.58774000       1.84762000      -2.18438000       0.12872000
H        4.39802000      -2.42297000      -1.85793000       0.12835000
H        1.01720000      -0.00721000       0.35409000       0.13374000
Br      -4.66086000       0.07461000       1.56623000      -0.28469000
C       -7.53779000       0.46409000      -4.03997000      -0.19437000
C       -7.88002000      -0.91167000      -3.45953000      -0.19362000
C       -6.61605000      -1.62565000      -2.96420000      -0.20334000
C       -5.83100000      -0.78468000      -1.94062000      -0.01176000
C       -5.49534000       0.60829000      -2.52259000      -0.01067000
C       -6.77785000       1.30764000      -3.00818000      -0.20040000
H       -6.87794000      -2.58987000      -2.52080000       0.11106000
H       -8.58105000      -0.78811000      -2.62138000       0.09948000
H       -8.38846000      -1.53226000      -4.20661000       0.10697000
H       -6.91531000       0.33940000      -4.93759000       0.10013000
H       -8.44622000       0.99080000      -4.35505000       0.10639000
H       -6.43410000      -0.63295000      -1.03600000       0.10925000
H       -4.79572000       0.46958000      -3.35541000       0.11219000
H       -7.42474000       1.48714000      -2.13602000       0.10225000
H       -6.53882000       2.28998000      -3.43016000       0.10637000
H       -5.95346000      -1.84167000      -3.81504000       0.10413000
N       -4.57769000      -1.43682000      -1.48937000      -0.34229000
N       -4.76224000       1.41451000      -1.50397000      -0.33062000
H       -5.41910000       1.66528000      -0.76232000       0.20346000
H       -4.01788000      -1.68260000      -2.31410000       0.21038000
C       -4.11526000       2.62539000      -2.05495000      -0.10136000
H       -4.70750000       3.03790000      -2.88196000       0.10775000
H       -3.15937000       2.30562000      -2.48153000       0.11986000
C       -4.73812000      -2.62472000      -0.61071000      -0.10852000
H       -3.81175000      -2.70910000      -0.03787000       0.12236000
H       -5.52183000      -2.39367000       0.11265000       0.11543000
C       -4.99906000      -3.93969000      -1.31673000       0.00081000
C       -4.12072000      -4.39901000      -2.31227000      -0.10858000
C       -6.09155000      -4.73967000      -0.95394000      -0.10357000
C       -4.33785000      -5.61859000      -2.94530000      -0.08883000
H       -3.26705000      -3.79404000      -2.60514000       0.11889000
C       -6.32126000      -5.96617000      -1.57292000      -0.08965000
H       -6.77313000      -4.39593000      -0.18034000       0.11533000
C       -5.43913000      -6.38650000      -2.56622000       0.02758000
H       -3.67387000      -5.98285000      -3.71955000       0.12609000
H       -7.16379000      -6.59168000      -1.30492000       0.12667000
C       -3.87627000       3.73431000      -1.05210000       0.00217000
C       -4.02118000       3.57385000       0.33164000      -0.10700000
C       -3.46434000       4.98056000      -1.55442000      -0.10550000
C       -3.76350000       4.63638000       1.19669000      -0.08773000
H       -4.29292000       2.61435000       0.76029000       0.12625000
C       -3.18940000       6.04500000      -0.70410000      -0.09386000
H       -3.35525000       5.11725000      -2.62792000       0.11341000
C       -3.34490000       5.85547000       0.66983000       0.02478000
H       -3.86885000       4.52036000       2.26857000       0.12812000
H       -2.86751000       7.00817000      -1.08014000       0.12631000
N        6.07672000      -0.35637000      -1.98907000       0.25006000
O        6.69365000       0.70597000      -2.05425000      -0.19414000
O        6.59607000      -1.46739000      -1.89138000      -0.19421000
N       -5.67499000      -7.67726000      -3.23255000       0.25080000
O       -6.65868000      -8.32980000      -2.88347000      -0.19745000
O       -4.87432000      -8.02755000      -4.09964000      -0.19775000
N       -3.04772000       6.97114000       1.58171000       0.25052000
O       -2.67700000       8.03413000       1.08180000      -0.19940000
O       -3.18051000       6.77426000       2.78905000      -0.19584000
