89
R1TS1majorsCNcNO2.xyz  (col5 = NBO charge)
O       -2.27985000       0.17682000      -2.56758000      -0.28416000
N       -1.72136000      -0.91416000      -2.96308000       0.22541000
C       -0.38820000      -1.08955000      -2.76109000      -0.08723000
C        0.37900000      -0.07523000      -2.15707000       0.00488000
C        1.84876000      -0.17710000      -2.10820000      -0.04510000
O       -1.90653000       1.49550000      -0.00275000      -0.32229000
C       -0.69525000       1.27023000       0.11945000       0.41347000
C       -0.00398000      -0.00008000      -0.00000000      -0.23588000
C       -0.71866000      -1.24494000       0.11781000       0.41608000
O       -1.92770000      -1.43291000      -0.08339000      -0.32957000
Ni      -3.38884000       0.06262000      -0.59451000       1.33816000
O        0.16978000       2.27914000       0.31340000      -0.26706000
C       -0.40413000       3.59847000       0.42250000      -0.11378000
C       -0.53180000      -3.58449000       0.36034000      -0.11244000
H       -1.25590000      -3.64515000       1.17698000       0.10004000
H       -0.02143000       0.92640000      -2.26921000       0.12034000
H       -0.01516000      -2.05765000      -3.05857000       0.11830000
H       -1.07285000       3.65019000       1.28390000       0.10107000
H       -0.96963000       3.85130000      -0.47756000       0.09702000
O        0.09703000      -2.28798000       0.34228000      -0.26680000
H        0.44435000       4.27016000       0.55155000       0.10022000
H        0.27994000      -4.29528000       0.51430000       0.10032000
H       -1.04259000      -3.77685000      -0.58753000       0.09622000
O       -2.40718000      -1.80672000      -3.52676000      -0.24993000
C        2.61674000       0.99932000      -2.15002000      -0.09052000
C        2.50817000      -1.41357000      -1.98635000      -0.09312000
C        4.00439000       0.94831000      -2.10387000      -0.07327000
H        2.11546000       1.96077000      -2.21258000       0.11542000
C        3.89432000      -1.47587000      -1.93615000      -0.07280000
H        1.93084000      -2.32756000      -1.89859000       0.11512000
C        4.65360000      -0.29373000      -2.00114000      -0.09109000
H        4.59102000       1.86013000      -2.14399000       0.11983000
H        4.39838000      -2.43197000      -1.84080000       0.11956000
H        1.01616000      -0.00720000       0.35933000       0.13374000
Br      -4.68552000       0.08635000       1.53470000      -0.28554000
C       -7.50401000       0.43192000      -4.09563000      -0.19435000
C       -7.84828000      -0.94009000      -3.50755000      -0.19365000
C       -6.58671000      -1.64699000      -2.99638000      -0.20331000
C       -5.81264000      -0.79629000      -1.97257000      -0.01164000
C       -5.47504000       0.59320000      -2.56140000      -0.01085000
C       -6.75489000       1.28547000      -3.06409000      -0.20041000
H       -6.84947000      -2.60874000      -2.54786000       0.11096000
H       -8.55657000      -0.81177000      -2.67625000       0.09952000
H       -8.34906000      -1.56746000      -4.25416000       0.10690000
H       -6.87349000       0.30149000      -4.98680000       0.10014000
H       -8.41080000       0.95412000      -4.42278000       0.10632000
H       -6.42385000      -0.63939000      -1.07429000       0.10914000
H       -4.76718000       0.45033000      -3.38649000       0.11238000
H       -7.40988000       1.47063000      -2.19918000       0.10222000
H       -6.51445000       2.26482000      -3.49215000       0.10630000
H       -5.91647000      -1.86741000      -3.84006000       0.10411000
N       -4.56205000      -1.44240000      -1.50608000      -0.34269000
N       -4.75354000       1.40878000      -1.54181000      -0.33049000
H       -5.41770000       1.66296000      -0.80788000       0.20322000
H       -3.99350000      -1.68998000      -2.32441000       0.21072000
C       -4.10527000       2.61684000      -2.09640000      -0.10164000
H       -4.69731000       3.02855000      -2.92415000       0.10758000
H       -3.15042000       2.29386000      -2.52278000       0.12016000
C       -4.72933000      -2.62639000      -0.62358000      -0.10849000
H       -3.81372000      -2.70073000      -0.03242000       0.12260000
H       -5.52865000      -2.39823000       0.08344000       0.11516000
C       -4.96576000      -3.94748000      -1.32674000       0.00102000
C       -4.06854000      -4.40212000      -2.30753000      -0.10874000
C       -6.05338000      -4.75850000      -0.97387000      -0.10362000
C       -4.26185000      -5.62854000      -2.93507000      -0.08883000
H       -3.21916000      -3.78807000      -2.59384000       0.11902000
C       -6.25941000      -5.99181000      -1.58760000      -0.08963000
H       -6.74967000      -4.41823000      -0.21192000       0.11524000
C       -5.35840000      -6.40784000      -2.56567000       0.02748000
H       -3.58302000      -5.98943000      -3.69793000       0.12604000
H       -7.09785000      -6.62587000      -1.32699000       0.12658000
C       -3.86355000       3.72858000      -1.09742000       0.00234000
C       -4.02402000       3.57871000       0.28574000      -0.10701000
C       -3.43422000       4.96743000      -1.60365000      -0.10554000
C       -3.76429000       4.64438000       1.14635000      -0.08763000
H       -4.30914000       2.62473000       0.71807000       0.12617000
C       -3.15751000       6.03479000      -0.75772000      -0.09389000
H       -3.31276000       5.09559000      -2.67688000       0.11342000
C       -3.32851000       5.85585000       0.61586000       0.02468000
H       -3.88103000       4.53636000       2.21787000       0.12812000
H       -2.82226000       6.99218000      -1.13683000       0.12623000
C        6.08437000      -0.35584000      -1.95280000       0.15964000
N        7.24578000      -0.40681000      -1.91422000      -0.17570000
N       -5.56855000      -7.70610000      -3.22579000       0.25081000
O       -6.54915000      -8.36837000      -2.88637000      -0.19754000
O       -4.75088000      -8.05283000      -4.07839000      -0.19780000
N       -3.02886000       6.97423000       1.52338000       0.25050000
O       -2.64292000       8.03039000       1.02038000      -0.19951000
O       -3.17473000       6.78646000       2.73070000      -0.19587000
