108
R1TS8majorsNO2cNMe2.xyz  (col5 = NBO charge)
O       -2.28428000       0.15814000      -2.58434000      -0.28021000
N       -1.71744000      -0.92901000      -2.96987000       0.22830000
C       -0.38087000      -1.09435000      -2.75471000      -0.07675000
C        0.36921000      -0.07338000      -2.14474000      -0.05305000
C        1.84116000      -0.15763000      -2.08558000      -0.01883000
O       -1.90743000       1.48353000      -0.00208000      -0.31871000
C       -0.69511000       1.27143000       0.11558000       0.41411000
C       -0.00072000       0.00051000       0.00614000      -0.23028000
C       -0.71922000      -1.24499000       0.11203000       0.41616000
O       -1.92964000      -1.42268000      -0.08055000      -0.32700000
Ni      -3.39971000       0.07766000      -0.59725000       1.34073000
O        0.16367000       2.29012000       0.28364000      -0.27441000
C       -0.42697000       3.61826000       0.34664000      -0.02782000
C       -0.52524000      -3.60480000       0.27491000      -0.02313000
H       -1.22357000      -3.67834000       1.11464000       0.09985000
H       -0.04101000       0.92383000      -2.26087000       0.12547000
H       -0.00108000      -2.06353000      -3.03933000       0.11724000
H       -1.09904000       3.65925000       1.20680000       0.10131000
H       -1.03716000       3.78187000      -0.54492000       0.10182000
O        0.09705000      -2.29454000       0.30305000      -0.27485000
H       -1.10452000      -3.70388000      -0.64861000       0.09740000
O       -2.38638000      -1.82795000      -3.53764000      -0.24408000
C        2.59460000       1.02978000      -2.10660000      -0.08914000
C        2.51486000      -1.38784000      -1.97028000      -0.09259000
C        3.98264000       0.99763000      -2.04376000      -0.09010000
H        2.08077000       1.98477000      -2.16085000       0.11625000
C        3.90156000      -1.43515000      -1.90444000      -0.08989000
H        1.94770000      -2.30916000      -1.89861000       0.11535000
C        4.61913000      -0.23927000      -1.94853000       0.03364000
H        4.57480000       1.90398000      -2.06467000       0.12780000
H        4.43405000      -2.37367000      -1.81356000       0.12749000
H        1.01831000      -0.00783000       0.36875000       0.13195000
Br      -4.68711000       0.12769000       1.54374000      -0.29051000
C       -7.53586000       0.44884000      -4.05793000      -0.19419000
C       -7.87470000      -0.92099000      -3.46079000      -0.19357000
C       -6.60895000      -1.62884000      -2.96161000      -0.20350000
C       -5.82231000      -0.77477000      -1.95026000      -0.01140000
C       -5.48488000       0.60905000      -2.55261000      -0.01058000
C       -6.76931000       1.30378000      -3.04048000      -0.20014000
H       -6.86296000      -2.59006000      -2.50821000       0.11304000
H       -8.57264000      -0.78742000      -2.62125000       0.09861000
H       -8.38693000      -1.54978000      -4.19908000       0.10530000
H       -6.91764000       0.31324000      -4.95719000       0.09929000
H       -8.44599000       0.97231000      -4.37523000       0.10469000
H       -6.42548000      -0.60745000      -1.04841000       0.10832000
H       -4.79295000       0.45550000      -3.38951000       0.11091000
H       -7.41133000       1.49365000      -2.16682000       0.10163000
H       -6.53066000       2.28121000      -3.47369000       0.10629000
H       -5.94815000      -1.85235000      -3.81203000       0.10333000
N       -4.57407000      -1.42528000      -1.48647000      -0.34213000
N       -4.74163000       1.43057000      -1.55590000      -0.33022000
H       -5.39295000       1.71056000      -0.81992000       0.20257000
H       -4.02072000      -1.69336000      -2.30789000       0.20917000
C       -4.08261000       2.62397000      -2.13868000      -0.09374000
H       -4.68266000       3.02223000      -2.96820000       0.10184000
H       -3.14168000       2.27362000      -2.57355000       0.11332000
C       -4.74709000      -2.61343000      -0.59754000      -0.10134000
H       -3.85302000      -2.65249000       0.02726000       0.11669000
H       -5.57769000      -2.39525000       0.07658000       0.11106000
C       -4.93606000      -3.93627000      -1.30545000      -0.05121000
C       -3.97226000      -4.42155000      -2.19973000      -0.10679000
C       -6.04772000      -4.74762000      -1.06012000      -0.09355000
C       -4.12013000      -5.64876000      -2.83764000      -0.11449000
H       -3.09119000      -3.82359000      -2.42072000       0.11055000
C       -6.21040000      -5.98306000      -1.68296000      -0.14052000
H       -6.80933000      -4.41042000      -0.35953000       0.10767000
C       -5.25391000      -6.46224000      -2.60569000       0.09307000
H       -3.34330000      -5.97025000      -3.52106000       0.10911000
H       -7.09045000      -6.56894000      -1.44652000       0.11178000
C       -3.82072000       3.74606000      -1.15531000      -0.04652000
C       -3.98322000       3.63692000       0.22831000      -0.09565000
C       -3.34136000       4.96422000      -1.65283000      -0.09704000
C       -3.68585000       4.70026000       1.07873000      -0.13525000
H       -4.29689000       2.70166000       0.68169000       0.11920000
C       -3.01957000       6.02839000      -0.81569000      -0.13858000
H       -3.19863000       5.08586000      -2.72575000       0.10611000
C       -3.19521000       5.92767000       0.58412000       0.09345000
H       -3.82228000       4.54681000       2.14231000       0.11200000
H       -2.64025000       6.94005000      -1.26147000       0.10961000
C        0.59143000      -4.62648000       0.36635000      -0.30196000
H        0.16964000      -5.63706000       0.36057000       0.11031000
H        1.27585000      -4.53363000      -0.48397000       0.10193000
H        1.16695000      -4.49419000       1.28775000       0.10708000
C        0.71086000       4.61246000       0.45542000      -0.30182000
H        1.37146000       4.55196000      -0.41639000       0.10275000
H        0.29807000       5.62603000       0.50481000       0.10869000
H        1.30854000       4.43349000       1.35502000       0.10572000
N        6.08796000      -0.28430000      -1.88138000       0.25004000
O        6.62210000      -1.39008000      -1.79500000      -0.19572000
O        6.69437000       0.78643000      -1.91586000      -0.19576000
N       -5.42407000      -7.67762000      -3.26566000      -0.25604000
C       -4.30374000      -8.24108000      -3.99922000      -0.18225000
C       -6.45765000      -8.58771000      -2.80249000      -0.18202000
H       -4.60966000      -9.18695000      -4.45139000       0.10302000
H       -3.99386000      -7.57444000      -4.81267000       0.09935000
H       -3.42432000      -8.43076000      -3.36140000       0.09200000
H       -6.32290000      -8.89045000      -1.75082000       0.09267000
H       -7.45089000      -8.13316000      -2.89863000       0.09916000
H       -6.44921000      -9.48680000      -3.42236000       0.10299000
N       -2.89979000       6.99474000       1.43499000      -0.25680000
C       -2.11161000       8.09822000       0.91408000      -0.18150000
C       -2.81073000       6.73427000       2.86290000      -0.18184000
H       -1.96378000       8.83860000       1.70326000       0.10361000
H       -1.11979000       7.78370000       0.54433000       0.08961000
H       -2.63442000       8.59850000       0.09113000       0.09971000
H       -3.76932000       6.37635000       3.25370000       0.10123000
H       -2.04010000       5.98632000       3.11626000       0.09147000
H       -2.57252000       7.66457000       3.38326000       0.10271000
