114
R1TS8minorsNMe2cNMe2.xyz  (col5 = NBO charge)
O       -2.31865000       1.30574000       3.93427000      -0.27298000
N       -1.31697000       1.17763000       3.16211000       0.22973000
C       -0.99996000      -0.08434000       2.70758000      -0.11738000
C        0.23090000      -0.30713000       2.02805000      -0.05498000
C        0.85291000      -1.64842000       2.05665000      -0.06779000
O       -1.91615000      -1.44040000      -0.02543000      -0.33377000
C       -0.73649000      -1.20365000      -0.33763000       0.42026000
C        0.00093000      -0.00015000       0.00327000      -0.22024000
C       -0.71297000       1.25995000      -0.02884000       0.41957000
O       -1.93646000       1.38105000       0.15466000      -0.33856000
Ni      -3.25629000      -0.08487000       0.80513000       1.35668000
O        0.01655000      -2.12964000      -0.93328000      -0.26719000
C       -0.59777000      -3.42709000      -1.14446000      -0.03024000
C       -0.55827000       3.61955000      -0.01781000      -0.02482000
H       -1.28578000       3.77349000      -0.82176000       0.09604000
H        0.92728000       0.52432000       2.10713000       0.12891000
H       -1.59611000      -0.86407000       3.15061000       0.11464000
H       -1.40064000      -3.31525000      -1.87862000       0.09851000
H       -1.04640000      -3.76149000      -0.20941000       0.10523000
O        0.06909000       2.32205000      -0.20770000      -0.26787000
H       -1.08864000       3.60417000       0.93665000       0.10756000
O       -0.63917000       2.17371000       2.80742000      -0.25286000
C        2.24004000      -1.78747000       1.89744000      -0.07642000
C        0.10239000      -2.83020000       2.15627000      -0.08716000
C        2.85358000      -3.03243000       1.84383000      -0.13671000
H        2.85557000      -0.89575000       1.80048000       0.10903000
C        0.69481000      -4.08273000       2.09855000      -0.13968000
H       -0.97759000      -2.78461000       2.21896000       0.11103000
C        2.09358000      -4.22278000       1.94148000       0.10509000
H        3.92801000      -3.07397000       1.71312000       0.11194000
H        0.04914000      -4.95029000       2.14056000       0.11269000
H        1.02541000       0.03081000      -0.34913000       0.13052000
Br      -4.94020000      -0.20166000      -1.03804000      -0.28640000
C       -6.97508000      -0.32001000       4.76962000      -0.19390000
C       -7.35863000       1.03307000       4.16276000      -0.19325000
C       -6.14047000       1.70597000       3.51934000      -0.20398000
C       -5.47361000       0.80493000       2.46415000      -0.01127000
C       -5.08817000      -0.55969000       3.07366000      -0.01334000
C       -6.32270000      -1.22221000       3.71319000      -0.19992000
H       -6.42851000       2.65410000       3.05849000       0.11285000
H       -8.13744000       0.88112000       3.40098000       0.09847000
H       -7.78918000       1.69144000       4.92695000       0.10544000
H       -6.26792000      -0.16204000       5.59658000       0.10010000
H       -7.85317000      -0.82165000       5.19451000       0.10453000
H       -6.16967000       0.61892000       1.63595000       0.11030000
H       -4.31471000      -0.38342000       3.83238000       0.11228000
H       -7.05027000      -1.43820000       2.91595000       0.10224000
H       -6.05489000      -2.18283000       4.16548000       0.10546000
H       -5.39547000       1.94945000       4.28987000       0.10587000
N       -4.26723000       1.41110000       1.85704000      -0.35260000
N       -4.45265000      -1.41022000       2.02016000      -0.34244000
H       -5.17754000      -1.65252000       1.34011000       0.20508000
H       -3.62381000       1.64132000       2.62594000       0.21242000
C       -3.84659000      -2.64546000       2.55910000      -0.08969000
H       -4.49714000      -3.08580000       3.32670000       0.10490000
H       -2.93148000      -2.34817000       3.08279000       0.10082000
C       -4.51573000       2.63070000       1.03143000      -0.09960000
H       -3.73057000       2.65146000       0.27518000       0.11904000
H       -5.45466000       2.47477000       0.49502000       0.10916000
C       -4.52566000       3.94020000       1.79152000      -0.05244000
C       -3.48459000       4.29524000       2.66150000      -0.10845000
C       -5.55635000       4.86728000       1.61137000      -0.09520000
C       -3.48014000       5.51889000       3.32403000      -0.11526000
H       -2.66560000       3.60803000       2.85860000       0.11589000
C       -5.56383000       6.09911000       2.26256000      -0.13875000
H       -6.38436000       4.62214000       0.94851000       0.10652000
C       -4.51396000       6.46399000       3.13347000       0.09264000
H       -2.65734000       5.73007000       3.99642000       0.11034000
H       -6.39690000       6.76980000       2.08923000       0.10917000
C       -3.53802000      -3.72014000       1.53646000      -0.04726000
C       -3.93897000      -3.67919000       0.19861000      -0.09164000
C       -2.83435000      -4.85281000       1.96415000      -0.09772000
C       -3.65617000      -4.72865000      -0.67314000      -0.13360000
H       -4.43222000      -2.80326000      -0.21162000       0.11847000
C       -2.52566000      -5.90019000       1.10132000      -0.13975000
H       -2.50236000      -4.91788000       2.99945000       0.10669000
C       -2.93853000      -5.86830000      -0.25103000       0.09542000
H       -3.97629000      -4.62726000      -1.70285000       0.11220000
H       -1.96470000      -6.74197000       1.48976000       0.10937000
C        0.49594000      -4.36686000      -1.60942000      -0.30312000
H        1.27749000      -4.44149000      -0.84681000       0.10727000
H        0.07126000      -5.36361000      -1.77470000       0.10623000
H        0.94893000      -4.02084000      -2.54417000       0.10580000
C        0.55028000       4.65253000      -0.03635000      -0.30213000
H        0.12177000       5.65154000       0.09824000       0.10911000
H        1.25698000       4.46570000       0.77829000       0.10621000
H        1.09542000       4.63211000      -0.98587000       0.10365000
N        2.68833000      -5.47521000       1.87936000      -0.25002000
C        4.08386000      -5.57859000       1.48502000      -0.18206000
C        1.84317000      -6.64849000       1.73168000      -0.18212000
H        4.38357000      -6.62834000       1.49516000       0.10429000
H        4.27172000      -5.17366000       0.47759000       0.09440000
H        4.73025000      -5.04513000       2.19177000       0.10063000
H        1.16887000      -6.75750000       2.58950000       0.10009000
H        1.22638000      -6.61419000       0.81855000       0.09301000
H        2.47035000      -7.54111000       1.69043000       0.10474000
N       -2.64072000      -6.91190000      -1.12673000      -0.25656000
C       -2.84443000      -6.70627000      -2.55186000      -0.18179000
C       -1.66103000      -7.90386000      -0.72153000      -0.18168000
H       -2.56792000      -7.61606000      -3.08891000       0.10321000
H       -3.89896000      -6.50400000      -2.76944000       0.10164000
H       -2.24821000      -5.87048000      -2.95441000       0.09175000
H       -0.67345000      -7.46466000      -0.49605000       0.08925000
H       -1.99786000      -8.44859000       0.16838000       0.09973000
H       -1.53524000      -8.63467000      -1.52312000       0.10416000
N       -4.49256000       7.70557000       3.77164000      -0.25704000
C       -5.70034000       8.51258000       3.76290000      -0.18192000
C       -3.56097000       7.90784000       4.86896000      -0.18228000
H       -5.51465000       9.44347000       4.30348000       0.10249000
H       -5.98277000       8.78077000       2.73809000       0.09910000
H       -6.56135000       8.00554000       4.23057000       0.09176000
H       -3.71111000       7.19605000       5.69776000       0.09269000
H       -2.52501000       7.81049000       4.52451000       0.09953000
H       -3.68086000       8.92114000       5.25902000       0.10208000
