98
R1TS8minorsOMecNO2.xyz  (col5 = NBO charge)
O       -2.37578000       1.27426000       3.92256000      -0.27275000
N       -1.35794000       1.16217000       3.16776000       0.23018000
C       -1.01255000      -0.09713000       2.72466000      -0.11336000
C        0.22129000      -0.30195000       2.05572000      -0.05320000
C        0.86625000      -1.63250000       2.08676000      -0.06001000
O       -1.91724000      -1.44471000      -0.02805000      -0.34011000
C       -0.73162000      -1.20853000      -0.33296000       0.41907000
C       -0.00311000       0.00017000      -0.00252000      -0.22073000
C       -0.71177000       1.26098000      -0.02567000       0.41900000
O       -1.93740000       1.38889000       0.15523000      -0.34164000
Ni      -3.26629000      -0.07405000       0.75480000       1.35720000
O        0.03202000      -2.13725000      -0.90473000      -0.26519000
C       -0.56315000      -3.44671000      -1.11074000      -0.02940000
C       -0.54044000       3.62272000      -0.00902000      -0.02429000
H       -1.26933000       3.77544000      -0.81201000       0.09636000
H        0.90222000       0.54263000       2.12232000       0.13035000
H       -1.60990000      -0.88346000       3.15492000       0.11465000
H       -1.32402000      -3.35681000      -1.89144000       0.09868000
H       -1.05656000      -3.74639000      -0.18696000       0.10009000
O        0.07590000       2.31881000      -0.19195000      -0.26623000
H       -1.06671000       3.61583000       0.94835000       0.10537000
O       -0.69524000       2.16865000       2.82062000      -0.24838000
C        2.25698000      -1.73330000       1.95375000      -0.07499000
C        0.13176000      -2.82863000       2.20064000      -0.09224000
C        2.90722000      -2.96697000       1.94343000      -0.14798000
H        2.84846000      -0.82647000       1.85290000       0.11139000
C        0.75991000      -4.06262000       2.18778000      -0.12527000
H       -0.94963000      -2.79792000       2.25431000       0.10933000
C        2.15629000      -4.14519000       2.05741000       0.17209000
H        3.98550000      -2.99829000       1.84187000       0.11597000
H        0.19052000      -4.98386000       2.25416000       0.11471000
H        1.02515000       0.03149000      -0.34276000       0.13168000
Br      -4.93464000      -0.12699000      -1.09484000      -0.28040000
C       -6.97103000      -0.34768000       4.74097000      -0.19406000
C       -7.36056000       1.01174000       4.15274000      -0.19339000
C       -6.14721000       1.69085000       3.50661000      -0.20392000
C       -5.49046000       0.80272000       2.43501000      -0.01141000
C       -5.10724000      -0.57447000       3.01855000      -0.01352000
C       -6.33396000      -1.24102000       3.66748000      -0.20040000
H       -6.44281000       2.64347000       3.05803000       0.11075000
H       -8.14646000       0.86965000       3.39674000       0.09937000
H       -7.78227000       1.66178000       4.92817000       0.10724000
H       -6.25431000      -0.19977000       5.56122000       0.10101000
H       -7.84467000      -0.85216000       5.17028000       0.10630000
H       -6.19023000       0.63494000       1.60602000       0.11113000
H       -4.31921000      -0.41709000       3.76610000       0.11347000
H       -7.07254000      -1.45043000       2.87872000       0.10287000
H       -6.06050000      -2.20493000       4.10975000       0.10587000
H       -5.39604000       1.92497000       4.27394000       0.10659000
N       -4.27975000       1.41152000       1.83557000      -0.35306000
N       -4.49798000      -1.40611000       1.93308000      -0.34310000
H       -5.23432000      -1.60429000       1.25106000       0.20564000
H       -3.63313000       1.61957000       2.60841000       0.21261000
C       -3.91426000      -2.66953000       2.41937000      -0.09772000
H       -4.57664000      -3.14929000       3.15259000       0.11185000
H       -2.99935000      -2.41472000       2.96416000       0.10665000
C       -4.51781000       2.63554000       1.02544000      -0.10796000
H       -3.71742000       2.68046000       0.28469000       0.12530000
H       -5.44505000       2.48782000       0.46824000       0.11358000
C       -4.53695000       3.94142000       1.79545000       0.00023000
C       -3.51734000       4.26018000       2.70887000      -0.11096000
C       -5.54986000       4.88054000       1.55227000      -0.11985000
C       -3.51896000       5.48467000       3.37085000      -0.08755000
H       -2.71849000       3.55628000       2.92415000       0.12315000
C       -5.56261000       6.11136000       2.20286000      -0.05493000
H       -6.34091000       4.64357000       0.84540000       0.11398000
C       -4.54249000       6.39518000       3.10895000       0.01186000
H       -2.74198000       5.74119000       4.08041000       0.12663000
H       -6.34162000       6.84253000       2.02572000       0.12470000
C       -3.60279000      -3.70043000       1.35356000       0.00342000
C       -4.03703000      -3.59862000       0.02724000      -0.10269000
C       -2.87058000      -4.83385000       1.74801000      -0.10721000
C       -3.75152000      -4.61032000      -0.88806000      -0.08438000
H       -4.54700000      -2.71114000      -0.33338000       0.12457000
C       -2.55103000      -5.83607000       0.83971000      -0.09325000
H       -2.53407000      -4.92426000       2.77841000       0.11377000
C       -3.00190000      -5.70766000      -0.47488000       0.02230000
H       -4.07306000      -4.53519000      -1.91971000       0.12810000
H       -1.96093000      -6.69854000       1.12418000       0.12686000
C        0.54957000      -4.40381000      -1.48547000      -0.30327000
H        1.30203000      -4.43712000      -0.69197000       0.10754000
H        0.13753000      -5.41149000      -1.60958000       0.11017000
H        1.03359000      -4.10491000      -2.42041000       0.10667000
C        0.57557000       4.64717000      -0.03977000      -0.30247000
H        0.15593000       5.65064000       0.08861000       0.10950000
H        1.28508000       4.46225000       0.77267000       0.10688000
H        1.11502000       4.61503000      -0.99185000       0.10507000
O        2.67131000      -5.40232000       2.04070000      -0.27160000
C        4.07510000      -5.55853000       1.87595000      -0.11070000
H        4.63081000      -5.09345000       2.70092000       0.09007000
H        4.25735000      -6.63428000       1.87810000       0.10096000
H        4.41662000      -5.13338000       0.92289000       0.09027000
N       -2.62290000      -6.72775000      -1.46218000       0.25082000
O       -1.75480000      -7.54070000      -1.13520000      -0.19863000
O       -3.17847000      -6.69972000      -2.55863000      -0.19319000
N       -4.54738000       7.68996000       3.80669000       0.24996000
O       -5.46883000       8.46957000       3.56116000      -0.20062000
O       -3.63014000       7.91950000       4.59517000      -0.19766000
