96
R1TS1majorsNMe2cNO2.xyz  (col5 = NBO charge)
O       -2.07440000       0.20856000      -2.56608000      -0.29799000
N       -1.50136000      -0.88682000      -2.96671000       0.21177000
C       -0.19714000      -1.07192000      -2.70733000      -0.05982000
C        0.56095000      -0.06446000      -2.03485000      -0.05812000
C        2.01925000      -0.19262000      -1.94615000      -0.03276000
O       -1.90790000       1.49210000      -0.00437000      -0.31952000
C       -0.69860000       1.26855000       0.12449000       0.41829000
C        0.00514000       0.00002000      -0.00729000      -0.23337000
C       -0.72225000      -1.24392000       0.12371000       0.42025000
O       -1.92850000      -1.42895000      -0.08543000      -0.32624000
Ni      -3.34528000       0.06404000      -0.74551000       1.34116000
O        0.16058000       2.27726000       0.35008000      -0.26767000
C       -0.42084000       3.59269000       0.45432000      -0.11388000
C       -0.54383000      -3.57961000       0.38790000      -0.11245000
H       -1.29251000      -3.63811000       1.18240000       0.09944000
H        0.19743000       0.94453000      -2.20607000       0.12154000
H        0.19865000      -2.02367000      -3.02721000       0.11586000
H       -1.11623000       3.63528000       1.29517000       0.10039000
H       -0.95889000       3.85194000      -0.46049000       0.09746000
O        0.08575000      -2.28422000       0.38360000      -0.26613000
H        0.42072000       4.26658000       0.61505000       0.09948000
H        0.26269000      -4.29050000       0.56764000       0.09969000
H       -1.02626000      -3.77508000      -0.57414000       0.09661000
O       -2.18309000      -1.75547000      -3.59094000      -0.27430000
C        2.81937000       0.96230000      -1.89754000      -0.06161000
C        2.67357000      -1.43368000      -1.84556000      -0.09194000
C        4.19981000       0.89369000      -1.79540000      -0.15114000
H        2.34149000       1.93826000      -1.93350000       0.10623000
C        4.05227000      -1.52258000      -1.73932000      -0.13935000
H        2.09082000      -2.34951000      -1.82150000       0.10825000
C        4.86255000      -0.35788000      -1.72414000       0.11280000
H        4.76468000       1.81728000      -1.76880000       0.11222000
H        4.50253000      -2.50437000      -1.66016000       0.11230000
H        0.99932000      -0.00650000       0.41912000       0.13496000
Br      -4.84939000       0.10145000       1.25657000      -0.29227000
C       -7.12821000       0.31390000      -4.61664000      -0.19430000
C       -7.51313000      -1.04851000      -4.03122000      -0.19357000
C       -6.29727000      -1.72665000      -3.38819000      -0.20324000
C       -5.63086000      -0.84358000      -2.31714000      -0.01105000
C       -5.25617000       0.53864000      -2.89998000      -0.01169000
C       -6.49039000       1.20088000      -3.53936000      -0.20021000
H       -6.58925000      -2.68188000      -2.94232000       0.11003000
H       -8.29746000      -0.90942000      -3.27299000       0.09903000
H       -7.93577000      -1.69838000      -4.80660000       0.10637000
H       -6.41334000       0.17036000      -5.43952000       0.10024000
H       -8.00479000       0.81686000      -5.04215000       0.10562000
H       -6.32325000      -0.67756000      -1.48135000       0.10847000
H       -4.46862000       0.38887000      -3.64791000       0.11360000
H       -7.22751000       1.39692000      -2.74576000       0.10162000
H       -6.22215000       2.17309000      -3.96715000       0.10593000
H       -5.54838000      -1.95698000      -4.15972000       0.10475000
N       -4.42137000      -1.46404000      -1.72988000      -0.34599000
N       -4.64722000       1.38487000      -1.83284000      -0.32957000
H       -5.37891000       1.63903000      -1.16621000       0.20225000
H       -3.76903000      -1.70078000      -2.48952000       0.21414000
C       -3.96941000       2.59056000      -2.35193000      -0.10303000
H       -4.51651000       3.00753000      -3.20814000       0.10677000
H       -2.99593000       2.26128000      -2.72900000       0.12244000
C       -4.65529000      -2.64212000      -0.85829000      -0.10819000
H       -3.81959000      -2.68019000      -0.15567000       0.12300000
H       -5.54462000      -2.43934000      -0.25878000       0.11413000
C       -4.75458000      -3.97909000      -1.56514000       0.00271000
C       -3.75052000      -4.39167000      -2.45764000      -0.10970000
C       -5.82023000      -4.84898000      -1.29409000      -0.10423000
C       -3.81653000      -5.63638000      -3.07541000      -0.08878000
H       -2.92084000      -3.72882000      -2.68803000       0.12129000
C       -5.89944000      -6.10068000      -1.89962000      -0.09000000
H       -6.59950000      -4.54075000      -0.60197000       0.11480000
C       -4.89270000      -6.47629000      -2.78704000       0.02657000
H       -3.05419000      -5.96482000      -3.77113000       0.12563000
H       -6.71954000      -6.77964000      -1.70116000       0.12606000
C       -3.77414000       3.70124000      -1.34219000       0.00336000
C       -4.03505000       3.56336000       0.02676000      -0.10645000
C       -3.28538000       4.92873000      -1.82250000      -0.10556000
C       -3.81303000       4.62821000       0.89871000      -0.08720000
H       -4.37025000       2.61804000       0.44190000       0.12657000
C       -3.04719000       5.99539000      -0.96456000      -0.09438000
H       -3.08516000       5.04693000      -2.88503000       0.11336000
C       -3.31648000       5.82780000       0.39497000       0.02391000
H       -4.00524000       4.52767000       1.95999000       0.12773000
H       -2.66602000       6.94330000      -1.32354000       0.12587000
N        6.23558000      -0.43993000      -1.63845000      -0.24493000
C        6.87858000      -1.73414000      -1.47814000      -0.18257000
C        7.03008000       0.77290000      -1.52898000      -0.18248000
H        7.96057000      -1.59742000      -1.44716000       0.10532000
H        6.57102000      -2.23772000      -0.54979000       0.09704000
H        6.64961000      -2.40044000      -2.32004000       0.09959000
H        6.88691000       1.42413000      -2.40120000       0.09943000
H        6.78145000       1.35050000      -0.62652000       0.09718000
H        8.08741000       0.50805000      -1.48158000       0.10530000
N       -4.96677000      -7.79377000      -3.43600000       0.25077000
O       -5.93347000      -8.50948000      -3.17183000      -0.19857000
O       -4.05709000      -8.10532000      -4.20548000      -0.19853000
N       -3.05528000       6.94363000       1.31584000       0.25045000
O       -2.61393000       7.98982000       0.83689000      -0.20050000
O       -3.28547000       6.76628000       2.51190000      -0.19663000
