110
R1TS8minorsOMecNMe2.xyz  (col5 = NBO charge)
O       -2.35437000       1.28987000       3.91432000      -0.27101000
N       -1.33760000       1.17442000       3.16196000       0.23004000
C       -0.99377000      -0.08604000       2.71943000      -0.11430000
C        0.23371000      -0.29191000       2.03893000      -0.05690000
C        0.87700000      -1.62660000       2.06608000      -0.05676000
O       -1.91708000      -1.43753000      -0.02663000      -0.33451000
C       -0.73519000      -1.20473000      -0.33492000       0.41880000
C        0.00151000       0.00017000       0.00047000      -0.22027000
C       -0.71328000       1.25924000      -0.02746000       0.41902000
O       -1.93710000       1.37965000       0.15457000      -0.33912000
Ni      -3.27784000      -0.08365000       0.77164000       1.35929000
O        0.01900000      -2.13574000      -0.92079000      -0.26743000
C       -0.60377000      -3.42944000      -1.13914000      -0.03060000
C       -0.56075000       3.61919000      -0.00999000      -0.02491000
H       -1.28592000       3.77264000      -0.81614000       0.09621000
H        0.91884000       0.54917000       2.11059000       0.12930000
H       -1.59746000      -0.87219000       3.14008000       0.11449000
H       -1.39642000      -3.30872000      -1.88287000       0.09868000
H       -1.06831000      -3.75816000      -0.21006000       0.10506000
O        0.06894000       2.32269000      -0.19894000      -0.26804000
H       -1.09435000       3.60247000       0.94270000       0.10751000
O       -0.66532000       2.17742000       2.81820000      -0.25191000
C        2.26833000      -1.72975000       1.94883000      -0.07787000
C        0.13631000      -2.82123000       2.14550000      -0.09273000
C        2.91379000      -2.96655000       1.91487000      -0.14899000
H        2.86476000      -0.82333000       1.87607000       0.11054000
C        0.75969000      -4.05791000       2.10551000      -0.12529000
H       -0.94558000      -2.79079000       2.18333000       0.11347000
C        2.15559000      -4.14259000       1.98577000       0.16907000
H        3.99324000      -2.99954000       1.82507000       0.11480000
H        0.17876000      -4.97372000       2.13447000       0.11602000
H        1.02664000       0.03171000      -0.34980000       0.13048000
Br      -4.93559000      -0.20039000      -1.08613000      -0.28497000
C       -7.03398000      -0.32277000       4.69770000      -0.19394000
C       -7.41039000       1.03148000       4.08869000      -0.19327000
C       -6.18512000       1.70644000       3.46078000      -0.20399000
C       -5.50559000       0.80697000       2.41252000      -0.01139000
C       -5.12653000      -0.55768000       3.02543000      -0.01333000
C       -6.36829000      -1.22271000       3.64760000      -0.19994000
H       -6.46858000       2.65505000       2.99804000       0.11298000
H       -8.18006000       0.88075000       3.31746000       0.09849000
H       -7.85003000       1.68843000       4.84883000       0.10568000
H       -6.33731000      -0.16639000       5.53380000       0.10011000
H       -7.91724000      -0.82531000       5.11052000       0.10467000
H       -6.19171000       0.62144000       1.57601000       0.11036000
H       -4.36350000      -0.38156000       3.79461000       0.11218000
H       -7.08577000      -1.43687000       2.84080000       0.10229000
H       -6.10518000      -2.18448000       4.10025000       0.10567000
H       -5.44960000       1.94958000       4.24046000       0.10586000
N       -4.29197000       1.41289000       1.81915000      -0.35212000
N       -4.47572000      -1.40680000       1.98035000      -0.34223000
H       -5.19359000      -1.65958000       1.29682000       0.20509000
H       -3.65481000       1.63965000       2.59401000       0.21217000
C       -3.86163000      -2.63381000       2.52978000      -0.08932000
H       -4.51191000      -3.07289000       3.29842000       0.10502000
H       -2.95083000      -2.32559000       3.05467000       0.10028000
C       -4.52876000       2.63483000       0.99399000      -0.09942000
H       -3.73247000       2.65790000       0.24937000       0.11872000
H       -5.45974000       2.48005000       0.44358000       0.10935000
C       -4.55008000       3.94126000       1.75905000      -0.05288000
C       -3.52067000       4.29320000       2.64397000      -0.10855000
C       -5.57182000       4.87411000       1.55869000      -0.09509000
C       -3.52247000       5.51639000       3.30736000      -0.11531000
H       -2.70059000       3.60799000       2.84394000       0.11556000
C       -5.58481000       6.10601000       2.20946000      -0.13860000
H       -6.38197000       4.63843000       0.87081000       0.10662000
C       -4.56146000       6.45607000       3.11742000       0.09281000
H       -2.70059000       5.73177000       3.97954000       0.11031000
H       -6.40172000       6.78844000       2.00730000       0.10927000
C       -3.54071000      -3.71183000       1.51498000      -0.04827000
C       -3.94925000      -3.68923000       0.17896000      -0.09216000
C       -2.81764000      -4.82979000       1.94958000      -0.09817000
C       -3.65567000      -4.74252000      -0.68467000      -0.13429000
H       -4.45581000      -2.82375000      -0.23742000       0.11767000
C       -2.49868000      -5.88078000       1.09547000      -0.13881000
H       -2.47982000      -4.88081000       2.98380000       0.10673000
C       -2.91883000      -5.86759000      -0.25534000       0.09602000
H       -3.98127000      -4.65541000      -1.71401000       0.11206000
H       -1.92305000      -6.71022000       1.48842000       0.11065000
C        0.48408000      -4.38196000      -1.59077000      -0.30252000
H        1.24459000      -4.48995000      -0.81118000       0.10713000
H        0.04336000      -5.36645000      -1.78348000       0.10733000
H        0.96618000      -4.02948000      -2.50844000       0.10530000
C        0.54651000       4.65363000      -0.02450000      -0.30210000
H        0.11623000       5.65203000       0.10906000       0.10903000
H        1.25092000       4.46769000       0.79233000       0.10613000
H        1.09467000       4.63440000      -0.97227000       0.10383000
O        2.66772000      -5.40492000       1.93343000      -0.27359000
C        4.07294000      -5.55596000       1.79617000      -0.11045000
H        4.61142000      -5.11540000       2.64614000       0.08979000
H        4.25786000      -6.63145000       1.77110000       0.09963000
H        4.43828000      -5.10290000       0.86448000       0.08932000
N       -2.60648000      -6.91284000      -1.12147000      -0.25628000
C       -2.83460000      -6.73317000      -2.54585000      -0.18166000
C       -1.61070000      -7.88805000      -0.70927000      -0.18229000
H       -2.54580000      -7.64456000      -3.07352000       0.10331000
H       -3.89627000      -6.55632000      -2.75177000       0.10122000
H       -2.26213000      -5.89103000      -2.96933000       0.09164000
H       -0.63525000      -7.43033000      -0.47435000       0.09244000
H       -1.94562000      -8.44150000       0.17623000       0.09950000
H       -1.46489000      -8.61400000      -1.51178000       0.10371000
N       -4.58123000       7.66960000       3.80631000      -0.25681000
C       -3.38065000       8.09360000       4.50679000      -0.18216000
C       -5.50416000       8.70304000       3.36995000      -0.18186000
H       -3.56653000       9.05723000       4.98648000       0.10221000
H       -3.11707000       7.38034000       5.29620000       0.09990000
H       -2.50821000       8.20000000       3.84051000       0.09207000
H       -5.34557000       9.00727000       2.32161000       0.09208000
H       -6.54299000       8.36681000       3.46996000       0.09889000
H       -5.38449000       9.58360000       4.00511000       0.10257000
