108
R1TS1majorsNMe2cNMe2.xyz  (col5 = NBO charge)
O       -2.08229000       0.20354000      -2.57404000      -0.29468000
N       -1.51268000      -0.89106000      -2.97205000       0.21482000
C       -0.20601000      -1.08043000      -2.70457000      -0.06739000
C        0.54946000      -0.07588000      -2.03186000      -0.06019000
C        2.01092000      -0.20905000      -1.94221000      -0.02860000
O       -1.90809000       1.48382000       0.00212000      -0.31602000
C       -0.69767000       1.26969000       0.11533000       0.41735000
C        0.00729000       0.00016000      -0.00364000      -0.23405000
C       -0.72516000      -1.24142000       0.12692000       0.41958000
O       -1.92849000      -1.42445000      -0.08962000      -0.32336000
Ni      -3.35936000       0.07199000      -0.73427000       1.34148000
O        0.15940000       2.28954000       0.30451000      -0.27013000
C       -0.43679000       3.60327000       0.36688000      -0.11462000
C       -0.55911000      -3.57706000       0.37901000      -0.11276000
H       -1.31594000      -3.63640000       1.16569000       0.09947000
H        0.19052000       0.93436000      -2.20540000       0.12131000
H        0.18604000      -2.03656000      -3.01578000       0.11482000
H       -1.14231000       3.66594000       1.19750000       0.10151000
H       -0.97558000       3.83100000      -0.55553000       0.10030000
O        0.08004000      -2.28650000       0.38989000      -0.26839000
H        0.39907000       4.28854000       0.51144000       0.09625000
H        0.24094000      -4.29538000       0.56029000       0.09786000
H       -1.03604000      -3.76124000      -0.58794000       0.09796000
O       -2.18628000      -1.75641000      -3.60247000      -0.26832000
C        2.81803000       0.94024000      -1.92113000      -0.06356000
C        2.65716000      -1.45084000      -1.81623000      -0.09358000
C        4.19967000       0.86418000      -1.82143000      -0.15068000
H        2.34623000       1.91830000      -1.97464000       0.10636000
C        4.03667000      -1.54631000      -1.71173000      -0.13888000
H        2.06701000      -2.36083000      -1.76684000       0.10851000
C        4.85430000      -0.38847000      -1.72777000       0.10998000
H        4.76983000       1.78500000      -1.81353000       0.11149000
H        4.47975000      -2.52927000      -1.60871000       0.11164000
H        1.00171000      -0.00576000       0.42245000       0.13362000
Br      -4.81806000       0.08245000       1.30687000      -0.29596000
C       -7.16037000       0.54623000      -4.54577000      -0.19421000
C       -7.55836000      -0.83623000      -4.01879000      -0.19341000
C       -6.34893000      -1.56307000      -3.41770000      -0.20378000
C       -5.66009000      -0.74080000      -2.31156000      -0.01109000
C       -5.26477000       0.65697000      -2.84480000      -0.01096000
C       -6.49417000       1.37009000      -3.43659000      -0.20003000
H       -6.65001000      -2.53386000      -3.01740000       0.11324000
H       -8.33390000      -0.71962000      -3.24741000       0.09812000
H       -7.99888000      -1.44423000      -4.81848000       0.10482000
H       -6.45753000       0.42995000      -5.38350000       0.09931000
H       -8.03417000       1.08204000      -4.93681000       0.10398000
H       -6.34708000      -0.59586000      -1.46723000       0.10727000
H       -4.49490000       0.51858000      -3.61335000       0.11194000
H       -7.21777000       1.54015000      -2.62467000       0.10107000
H       -6.21221000       2.35771000      -3.81788000       0.10592000
H       -5.60879000      -1.76786000      -4.20490000       0.10373000
N       -4.46016000      -1.40520000      -1.75275000      -0.34433000
N       -4.61913000       1.45269000      -1.76419000      -0.32948000
H       -5.33418000       1.71727000      -1.08389000       0.20203000
H       -3.82526000      -1.64457000      -2.52513000       0.21259000
C       -3.90345000       2.65650000      -2.25268000      -0.09436000
H       -4.40334000       3.06182000      -3.14280000       0.10101000
H       -2.91562000       2.31505000      -2.57669000       0.11496000
C       -4.70196000      -2.61189000      -0.91259000      -0.10150000
H       -3.82676000      -2.70146000      -0.26557000       0.11584000
H       -5.54275000      -2.38504000      -0.25370000       0.11104000
C       -4.91636000      -3.90732000      -1.66470000      -0.04972000
C       -3.95818000      -4.38780000      -2.56765000      -0.09770000
C       -6.05254000      -4.69432000      -1.45628000      -0.09437000
C       -4.13619000      -5.58781000      -3.24860000      -0.13486000
H       -3.05846000      -3.80744000      -2.75978000       0.11354000
C       -6.24494000      -5.90244000      -2.12355000      -0.13856000
H       -6.81118000      -4.35868000      -0.75170000       0.10745000
C       -5.29473000      -6.37544000      -3.05508000       0.09851000
H       -3.36264000      -5.90760000      -3.93662000       0.10938000
H       -7.14373000      -6.47040000      -1.91514000       0.10956000
C       -3.77154000       3.76640000      -1.23094000      -0.04699000
C       -4.00518000       3.60487000       0.13779000      -0.09598000
C       -3.33885000       5.02532000      -1.66527000      -0.09700000
C       -3.82253000       4.65699000       1.03305000      -0.13595000
H       -4.29499000       2.64057000       0.54342000       0.12030000
C       -3.13267000       6.08092000      -0.78161000      -0.13916000
H       -3.14329000       5.18878000      -2.72424000       0.10587000
C       -3.38483000       5.92742000       0.60123000       0.09441000
H       -4.01408000       4.46383000       2.08166000       0.11169000
H       -2.78739000       7.02783000      -1.17922000       0.10920000
N        6.23220000      -0.47854000      -1.65211000      -0.24771000
C        6.85681000      -1.76533000      -1.39406000      -0.18255000
C        7.02455000       0.73085000      -1.50371000      -0.18243000
H        7.94135000      -1.64327000      -1.38380000       0.10461000
H        6.54983000      -2.19620000      -0.42844000       0.09559000
H        6.61210000      -2.48822000      -2.18232000       0.09987000
H        6.87717000       1.40664000      -2.35548000       0.09977000
H        6.77994000       1.28350000      -0.58338000       0.09558000
H        8.08294000       0.46623000      -1.47188000       0.10462000
N       -5.49496000      -7.56197000      -3.76204000      -0.25554000
C       -4.37869000      -8.13663000      -4.49297000      -0.18193000
C       -6.54933000      -8.46239000      -3.32837000      -0.18197000
H       -4.70624000      -9.05559000      -4.98430000       0.10255000
H       -4.03150000      -7.45285000      -5.27635000       0.09967000
H       -3.51807000      -8.37708000      -3.84625000       0.09183000
H       -6.42119000      -8.80583000      -2.28811000       0.09227000
H       -7.53105000      -7.98036000      -3.40594000       0.09918000
H       -6.56444000      -9.33873000      -3.98022000       0.10264000
N       -3.21681000       6.98722000       1.49542000      -0.25629000
C       -3.20481000       6.69390000       2.91924000      -0.18185000
C       -2.47642000       8.15599000       1.05274000      -0.18173000
H       -3.06419000       7.62313000       3.47607000       0.10222000
H       -4.16115000       6.26353000       3.23581000       0.10111000
H       -2.40487000       5.99061000       3.20735000       0.09139000
H       -1.44696000       7.91901000       0.73287000       0.09056000
H       -2.98500000       8.64673000       0.21487000       0.09927000
H       -2.42427000       8.87921000       1.86968000       0.10290000
