102
R1TS8minorsNMe2cNO2.xyz  (col5 = NBO charge)
O       -2.35310000       1.33387000       3.89829000      -0.27481000
N       -1.34025000       1.17585000       3.14292000       0.23018000
C       -1.04658000      -0.09522000       2.69814000      -0.11977000
C        0.19412000      -0.34865000       2.04201000      -0.05081000
C        0.77132000      -1.70681000       2.03587000      -0.07436000
O       -1.91451000      -1.45051000      -0.01909000      -0.33682000
C       -0.73956000      -1.19901000      -0.34744000       0.42204000
C       -0.00378000       0.00092000       0.00917000      -0.21996000
C       -0.70837000       1.26143000      -0.02775000       0.41980000
O       -1.93492000       1.38397000       0.15114000      -0.34244000
Ni      -3.23438000      -0.06708000       0.82096000       1.35218000
O        0.01437000      -2.09427000      -0.98137000      -0.26499000
C       -0.57182000      -3.39559000      -1.23633000      -0.02855000
C       -0.54305000       3.62287000      -0.03852000      -0.02451000
H       -1.28356000       3.76518000      -0.83292000       0.09579000
H        0.91230000       0.46235000       2.13471000       0.12975000
H       -1.65941000      -0.85865000       3.14716000       0.11553000
H       -1.41909000      -3.26644000      -1.91623000       0.09882000
H       -0.94480000      -3.78678000      -0.29049000       0.09980000
O        0.07447000       2.31926000      -0.21404000      -0.26566000
H       -1.05580000       3.62596000       0.92580000       0.10553000
O       -0.64106000       2.15524000       2.78781000      -0.24884000
C        2.13135000      -1.89291000       1.73314000      -0.07326000
C       -0.00449000      -2.86501000       2.20180000      -0.08434000
C        2.68663000      -3.15411000       1.57560000      -0.13695000
H        2.76608000      -1.02089000       1.59102000       0.10934000
C        0.53169000      -4.13467000       2.05390000      -0.14342000
H       -1.06536000      -2.78499000       2.40358000       0.10752000
C        1.89209000      -4.32103000       1.71049000       0.10928000
H        3.73765000      -3.23024000       1.32544000       0.11293000
H       -0.12402000      -4.98531000       2.17745000       0.11207000
H        1.02434000       0.02900000      -0.33198000       0.13132000
Br      -4.91524000      -0.22618000      -1.01872000      -0.28174000
C       -7.08860000      -0.01076000       4.70285000      -0.19390000
C       -7.40995000       1.32451000       4.02566000      -0.19334000
C       -6.15054000       1.92473000       3.39040000      -0.20343000
C       -5.48743000       0.95353000       2.39735000      -0.01178000
C       -5.16394000      -0.39186000       3.07521000      -0.01379000
C       -6.43784000      -0.98312000       3.70890000      -0.20036000
H       -6.39621000       2.85895000       2.87727000       0.11035000
H       -8.17108000       1.16481000       3.24817000       0.09938000
H       -7.83795000       2.03072000       4.74667000       0.10707000
H       -6.40072000       0.16136000       5.54289000       0.10082000
H       -7.99449000      -0.46387000       5.12269000       0.10614000
H       -6.16749000       0.75401000       1.55936000       0.11164000
H       -4.40410000      -0.20959000       3.84569000       0.11370000
H       -7.14989000      -1.21629000       2.90269000       0.10293000
H       -6.21681000      -1.92622000       4.21937000       0.10547000
H       -5.42039000       2.17870000       4.17174000       0.10619000
N       -4.24537000       1.49222000       1.79909000      -0.35230000
N       -4.52757000      -1.30658000       2.07312000      -0.34431000
H       -5.23686000      -1.53279000       1.37023000       0.20595000
H       -3.60622000       1.71455000       2.57428000       0.21286000
C       -4.02449000      -2.54563000       2.69138000      -0.09865000
H       -4.76052000      -2.96020000       3.39301000       0.11123000
H       -3.15532000      -2.27357000       3.30086000       0.10821000
C       -4.44525000       2.68435000       0.93360000      -0.10723000
H       -3.66016000       2.66234000       0.17679000       0.12685000
H       -5.38964000       2.55172000       0.40142000       0.11270000
C       -4.39601000       4.02653000       1.63732000       0.00017000
C       -3.38720000       4.32764000       2.56858000      -0.11242000
C       -5.33189000       5.01775000       1.30613000      -0.10507000
C       -3.32285000       5.58681000       3.15898000      -0.08648000
H       -2.64592000       3.58635000       2.85296000       0.12352000
C       -5.27821000       6.28261000       1.88478000      -0.09004000
H       -6.11521000       4.79481000       0.58615000       0.11405000
C       -4.26966000       6.54906000       2.80915000       0.02607000
H       -2.55240000       5.82998000       3.88027000       0.12671000
H       -5.99797000       7.05357000       1.63893000       0.12581000
C       -3.64123000      -3.65614000       1.73838000       0.00183000
C       -3.88524000      -3.62477000       0.36122000      -0.10268000
C       -3.02077000      -4.78563000       2.30054000      -0.10430000
C       -3.46795000      -4.68041000      -0.44846000      -0.08265000
H       -4.33618000      -2.75811000      -0.11188000       0.12610000
C       -2.58476000      -5.83562000       1.50503000      -0.09451000
H       -2.84827000      -4.82455000       3.37361000       0.11462000
C       -2.79144000      -5.75288000       0.12691000       0.02000000
H       -3.61349000      -4.64826000      -1.52097000       0.12798000
H       -2.07148000      -6.69310000       1.92191000       0.12639000
C        0.50970000      -4.28093000      -1.82054000      -0.30411000
H        1.32689000      -4.40745000      -1.10356000       0.10636000
H        0.08318000      -5.26292000      -2.05323000       0.11043000
H        0.91369000      -3.85223000      -2.74303000       0.10760000
C        0.56854000       4.65097000      -0.09573000      -0.30233000
H        0.14690000       5.65406000       0.02922000       0.10932000
H        1.29046000       4.47623000       0.70793000       0.10714000
H        1.09428000       4.61149000      -1.05521000       0.10491000
N        2.40868000      -5.58429000       1.50574000      -0.24666000
C        3.76721000      -5.73254000       1.00881000      -0.18198000
C        1.50798000      -6.72818000       1.45546000      -0.18287000
H        4.00411000      -6.79395000       0.92086000       0.10575000
H        3.90501000      -5.26565000       0.02126000       0.09576000
H        4.49171000      -5.28650000       1.70129000       0.10009000
H        1.00044000      -6.87489000       2.41748000       0.09832000
H        0.73760000      -6.62927000       0.67679000       0.09817000
H        2.08436000      -7.63058000       1.24689000       0.10656000
N       -2.18973000      -6.77293000      -0.73871000       0.25073000
O       -1.56966000      -7.69288000      -0.19860000      -0.19983000
O       -2.30161000      -6.63273000      -1.95722000      -0.19512000
N       -4.20454000       7.88002000       3.43100000       0.25089000
O       -5.05978000       8.70577000       3.10828000      -0.19961000
O       -3.29884000       8.09228000       4.23753000      -0.19764000
