98
R1TS8majorsNMe2.xyz  (col5 = NBO charge)
O       -2.05606000       0.20849000      -2.57191000      -0.29527000
N       -1.48704000      -0.88568000      -2.97218000       0.21562000
C       -0.18114000      -1.07609000      -2.70572000      -0.06483000
C        0.57306000      -0.07436000      -2.02716000      -0.04575000
C        2.03129000      -0.21016000      -1.91773000      -0.07536000
O       -1.90906000       1.48493000       0.00102000      -0.31850000
C       -0.69678000       1.27113000       0.11338000       0.41907000
C        0.00586000       0.00033000       0.00317000      -0.23003000
C       -0.72215000      -1.24478000       0.11854000       0.41986000
O       -1.92999000      -1.42381000      -0.08500000      -0.32557000
Ni      -3.34709000       0.07674000      -0.74078000       1.34300000
O        0.16124000       2.29030000       0.28784000      -0.27475000
C       -0.42494000       3.61930000       0.32888000      -0.02631000
C       -0.52509000      -3.60208000       0.28197000      -0.02310000
H       -1.25268000      -3.68880000       1.09536000       0.09896000
H        0.21700000       0.93730000      -2.19737000       0.12243000
H        0.20937000      -2.03241000      -3.01810000       0.11486000
H       -1.10684000       3.67532000       1.18095000       0.09997000
H       -1.02171000       3.77474000      -0.57316000       0.10053000
O        0.08900000      -2.29077000       0.34347000      -0.27363000
H       -1.06947000      -3.69446000      -0.66344000       0.09756000
O       -2.16341000      -1.75059000      -3.60221000      -0.26966000
C        2.83531000       0.93978000      -1.84099000      -0.08507000
C        2.67828000      -1.45421000      -1.81814000      -0.07816000
C        4.21377000       0.86331000      -1.71064000      -0.11370000
H        2.36164000       1.91795000      -1.87059000       0.10943000
C        4.05499000      -1.55055000      -1.68473000      -0.13839000
H        2.09102000      -2.36721000      -1.81511000       0.10831000
C        4.86955000      -0.39095000      -1.64170000       0.10415000
H        4.78120000       1.78435000      -1.65891000       0.10835000
H        4.49831000      -2.53550000      -1.60466000       0.11178000
H        1.00013000      -0.00600000       0.42906000       0.13428000
Br      -4.85410000       0.12056000       1.26410000      -0.29543000
C       -7.12531000       0.42325000      -4.59791000      -0.19424000
C       -7.51833000      -0.94616000      -4.03426000      -0.19346000
C       -6.30681000      -1.64601000      -3.40635000      -0.20359000
C       -5.63038000      -0.78682000      -2.32173000      -0.01100000
C       -5.24194000       0.59937000      -2.88765000      -0.01130000
C       -6.47292000       1.28461000      -3.50887000      -0.20007000
H       -6.60313000      -2.60693000      -2.97761000       0.11191000
H       -8.29901000      -0.81305000      -3.27093000       0.09845000
H       -7.94982000      -1.57927000      -4.81906000       0.10522000
H       -6.41598000       0.28772000      -5.42714000       0.09961000
H       -7.99985000       0.94138000      -5.01015000       0.10446000
H       -6.32177000      -0.62429000      -1.48440000       0.10793000
H       -4.46334000       0.44869000      -3.64492000       0.11248000
H       -7.20359000       1.47317000      -2.70746000       0.10124000
H       -6.19680000       2.26231000      -3.91877000       0.10584000
H       -5.56142000      -1.86864000      -4.18359000       0.10417000
N       -4.42976000      -1.42968000      -1.74069000      -0.34555000
N       -4.61348000       1.42811000      -1.81993000      -0.32995000
H       -5.33682000       1.69863000      -1.15078000       0.20218000
H       -3.78502000      -1.67550000      -2.50297000       0.21328000
C       -3.90951000       2.62415000      -2.33596000      -0.09864000
H       -4.42980000       3.02585000      -3.21583000       0.10296000
H       -2.92954000       2.28016000      -2.67989000       0.11836000
C       -4.67725000      -2.61637000      -0.87811000      -0.10451000
H       -3.83560000      -2.66942000      -0.18447000       0.11920000
H       -5.55724000      -2.40006000      -0.26923000       0.11174000
C       -4.81125000      -3.94318000      -1.59915000      -0.02085000
C       -3.80358000      -4.38821000      -2.46872000      -0.11214000
C       -5.91676000      -4.77137000      -1.37076000      -0.10781000
C       -3.91230000      -5.62582000      -3.10367000      -0.10289000
H       -2.94178000      -3.75567000      -2.66733000       0.11500000
C       -6.02382000      -6.01389000      -2.00044000      -0.10501000
H       -6.70142000      -4.43759000      -0.69505000       0.10881000
C       -5.02181000      -6.44371000      -2.87198000      -0.11204000
H       -3.12787000      -5.95235000      -3.78191000       0.10795000
H       -6.89101000      -6.64194000      -1.81269000       0.10827000
H       -5.10420000      -7.40760000      -3.36743000       0.10792000
C       -3.74057000       3.74995000      -1.33504000      -0.02029000
C       -4.00032000       3.61932000       0.03345000      -0.10890000
C       -3.26589000       4.97948000      -1.81784000      -0.11020000
C       -3.79339000       4.70055000       0.89519000      -0.10241000
H       -4.32428000       2.67154000       0.45198000       0.12125000
C       -3.04400000       6.05277000      -0.95567000      -0.10831000
H       -3.06390000       5.09368000      -2.88164000       0.10736000
C       -3.31133000       5.91671000       0.41021000      -0.11499000
H       -4.00058000       4.57715000       1.95496000       0.11038000
H       -2.67331000       6.99552000      -1.35015000       0.10806000
H       -3.14839000       6.75246000       1.08581000       0.10809000
C        0.59352000      -4.61895000       0.40231000      -0.30181000
H        0.17924000      -5.63213000       0.36743000       0.10958000
H        1.30835000      -4.50822000      -0.42017000       0.10276000
H        1.13307000      -4.49477000       1.34652000       0.10634000
C        0.71629000       4.61001000       0.43785000      -0.30183000
H        1.38532000       4.53283000      -0.42624000       0.10279000
H        0.30900000       5.62612000       0.47075000       0.10943000
H        1.30321000       4.43800000       1.34593000       0.10526000
N        6.24419000      -0.48041000      -1.53361000      -0.24697000
C        6.86826000      -1.77490000      -1.31510000      -0.18252000
C        7.03150000       0.72554000      -1.33643000      -0.18262000
H        7.95156000      -1.64964000      -1.27253000       0.10477000
H        6.53946000      -2.24627000      -0.37615000       0.09592000
H        6.64602000      -2.46507000      -2.13866000       0.09984000
H        6.90454000       1.42242000      -2.17451000       0.09972000
H        6.76321000       1.25440000      -0.40901000       0.09595000
H        8.08892000       0.46068000      -1.28433000       0.10476000
