110
R1TS8majorsOMecNMe2.xyz  (col5 = NBO charge)
O       -2.13963000       0.17870000      -2.58274000      -0.28952000
N       -1.56665000      -0.91277000      -2.97014000       0.22079000
C       -0.24726000      -1.08511000      -2.72400000      -0.07180000
C        0.50103000      -0.06968000      -2.07728000      -0.06082000
C        1.96693000      -0.17395000      -1.99271000      -0.00047000
O       -1.90851000       1.48195000      -0.00205000      -0.31835000
C       -0.69657000       1.26942000       0.11629000       0.41641000
C        0.00397000       0.00065000       0.00428000      -0.23238000
C       -0.72070000      -1.24369000       0.11404000       0.41816000
O       -1.93032000      -1.42054000      -0.08145000      -0.32615000
Ni      -3.36926000       0.07627000      -0.69314000       1.34321000
O        0.15970000       2.29052000       0.29602000      -0.27514000
C       -0.43417000       3.61566000       0.34899000      -0.02782000
C       -0.52917000      -3.60252000       0.26503000      -0.02320000
H       -1.24491000      -3.68744000       1.08904000       0.09907000
H        0.11439000       0.93332000      -2.22701000       0.12307000
H        0.14314000      -2.04684000      -3.01941000       0.11556000
H       -1.11860000       3.65887000       1.19958000       0.10041000
H       -1.03161000       3.77810000      -0.55124000       0.10198000
O        0.09155000      -2.29387000       0.32011000      -0.27458000
H       -1.08881000      -3.69137000      -0.67167000       0.09764000
O       -2.23634000      -1.79810000      -3.57025000      -0.25996000
C        2.74181000       0.99395000      -1.97682000      -0.09509000
C        2.63285000      -1.41073000      -1.87703000      -0.10204000
C        4.13234000       0.94904000      -1.88374000      -0.15088000
H        2.24525000       1.95935000      -2.02793000       0.10993000
C        4.01324000      -1.47131000      -1.78068000      -0.12484000
H        2.05807000      -2.33010000      -1.83320000       0.11035000
C        4.77729000      -0.29160000      -1.78950000       0.17251000
H        4.69532000       1.87494000      -1.88236000       0.11471000
H        4.53219000      -2.42007000      -1.68926000       0.11605000
H        1.01010000      -0.00729000       0.40092000       0.13305000
Br      -4.79973000       0.13097000       1.36511000      -0.29516000
C       -7.28454000       0.41929000      -4.40889000      -0.19416000
C       -7.65646000      -0.94907000      -3.82856000      -0.19348000
C       -6.42274000      -1.64949000      -3.24603000      -0.20357000
C       -5.70531000      -0.78920000      -2.18882000      -0.01115000
C       -5.33622000       0.59462000      -2.77323000      -0.01096000
C       -6.58918000       1.28123000      -3.34731000      -0.20003000
H       -6.70203000      -2.61004000      -2.80626000       0.11286000
H       -8.40739000      -0.81415000      -3.03617000       0.09830000
H       -8.11826000      -1.58304000      -4.59534000       0.10492000
H       -6.60804000       0.28176000      -5.26488000       0.09930000
H       -8.17387000       0.93789000      -4.78777000       0.10415000
H       -6.36564000      -0.62293000      -1.32752000       0.10779000
H       -4.58954000       0.44012000      -3.56140000       0.11152000
H       -7.28783000       1.47179000      -2.51831000       0.10124000
H       -6.32709000       2.25802000      -3.76834000       0.10592000
H       -5.70752000      -1.87331000      -4.05096000       0.10362000
N       -4.48554000      -1.43173000      -1.64798000      -0.34412000
N       -4.66334000       1.42494000      -1.73508000      -0.32999000
H       -5.35988000       1.70311000      -1.04109000       0.20201000
H       -3.87404000      -1.68885000      -2.43228000       0.21139000
C       -3.97512000       2.61792000      -2.28224000      -0.09453000
H       -4.53015000       3.01792000      -3.14198000       0.10109000
H       -3.01308000       2.26583000      -2.66651000       0.11476000
C       -4.70325000      -2.62008000      -0.77307000      -0.10162000
H       -3.83772000      -2.66543000      -0.10941000       0.11682000
H       -5.56189000      -2.40051000      -0.13524000       0.11069000
C       -4.86590000      -3.94252000      -1.48983000      -0.04986000
C       -3.87874000      -4.41993000      -2.36273000      -0.10721000
C       -5.97718000      -4.76156000      -1.27052000      -0.09410000
C       -4.00406000      -5.64836000      -3.00357000      -0.11427000
H       -2.99804000      -3.81483000      -2.56530000       0.11197000
C       -6.11707000      -5.99813000      -1.89731000      -0.14057000
H       -6.75721000      -4.42961000      -0.58788000       0.10746000
C       -5.13659000      -6.46996000      -2.79767000       0.09215000
H       -3.20985000      -5.96359000      -3.66980000       0.10899000
H       -6.99864000      -6.58980000      -1.68150000       0.11145000
C       -3.76435000       3.73975000      -1.28659000      -0.04592000
C       -3.98616000       3.62588000       0.08844000      -0.09518000
C       -3.26991000       4.96156000      -1.75954000      -0.09712000
C       -3.72901000       4.68770000       0.95368000      -0.13496000
H       -4.31727000       2.68841000       0.52448000       0.11987000
C       -2.98857000       6.02459000      -0.90619000      -0.13878000
H       -3.08141000       5.08668000      -2.82498000       0.10602000
C       -3.22255000       5.91819000       0.48426000       0.09277000
H       -3.90996000       4.52994000       2.00997000       0.11179000
H       -2.59436000       6.93917000      -1.33280000       0.10929000
C        0.58629000      -4.62485000       0.36685000      -0.30182000
H        0.16614000      -5.63585000       0.33857000       0.10951000
H        1.28840000      -4.51845000      -0.46716000       0.10253000
H        1.14203000      -4.50391000       1.30201000       0.10644000
C        0.70043000       4.61249000       0.47140000      -0.30156000
H        1.37327000       4.54869000      -0.39084000       0.10273000
H        0.28634000       5.62604000       0.51139000       0.10804000
H        1.28553000       4.43666000       1.38005000       0.10503000
O        6.12372000      -0.46286000      -1.69403000      -0.27285000
C        6.95289000       0.69034000      -1.68387000      -0.11066000
H        6.73039000       1.33911000      -0.82598000       0.08970000
H        7.97684000       0.32164000      -1.60152000       0.10017000
H        6.84902000       1.26969000      -2.61123000       0.08966000
N       -5.28351000      -7.68738000      -3.46313000      -0.25674000
C       -4.13687000      -8.24714000      -4.15777000      -0.18230000
C       -6.31359000      -8.60812000      -3.01383000      -0.18204000
H       -4.42362000      -9.19523000      -4.61816000       0.10267000
H       -3.80367000      -7.58065000      -4.96189000       0.09945000
H       -3.27749000      -8.43144000      -3.49132000       0.09176000
H       -6.19130000      -8.90943000      -1.95995000       0.09231000
H       -7.30987000      -8.16387000      -3.12436000       0.09918000
H       -6.28736000      -9.50717000      -3.63353000       0.10268000
N       -2.96765000       6.98477000       1.35139000      -0.25739000
C       -2.92769000       6.71451000       2.77970000      -0.18189000
C       -2.15279000       8.08616000       0.86904000      -0.18147000
H       -2.71616000       7.64310000       3.31477000       0.10237000
H       -3.89680000       6.34645000       3.13296000       0.10132000
H       -2.16088000       5.97049000       3.05582000       0.09127000
H       -1.14491000       7.76979000       0.54660000       0.08931000
H       -2.63468000       8.58767000       0.02229000       0.09965000
H       -2.04142000       8.82636000       1.66456000       0.10327000
