108
R1TS8minorsNO2cNMe2.xyz  (col5 = NBO charge)
O       -2.42413000       1.32229000       3.84863000      -0.26648000
N       -1.37621000       1.20400000       3.14517000       0.23130000
C       -1.01143000      -0.06269000       2.72956000      -0.11175000
C        0.21180000      -0.26664000       2.05210000      -0.06833000
C        0.83722000      -1.61438000       2.05344000      -0.01440000
O       -1.91697000      -1.43607000      -0.02379000      -0.33297000
C       -0.73772000      -1.20296000      -0.33920000       0.41717000
C        0.00310000       0.00024000       0.00369000      -0.21570000
C       -0.71280000       1.26063000      -0.02767000       0.41900000
O       -1.93674000       1.37496000       0.15300000      -0.33885000
Ni      -3.31098000      -0.08023000       0.72605000       1.36007000
O        0.01350000      -2.12630000      -0.93931000      -0.26759000
C       -0.61635000      -3.41401000      -1.18189000      -0.03074000
C       -0.56548000       3.62179000      -0.02935000      -0.02501000
H       -1.29653000       3.75731000      -0.83311000       0.09704000
H        0.90659000       0.56593000       2.12663000       0.13163000
H       -1.64726000      -0.84441000       3.10855000       0.11500000
H       -1.42335000      -3.27049000      -1.90575000       0.10026000
H       -1.06580000      -3.76193000      -0.25275000       0.10424000
O        0.06779000       2.32245000      -0.20013000      -0.26673000
H       -1.09306000       3.61806000       0.92669000       0.10749000
O       -0.68739000       2.20089000       2.82285000      -0.24795000
C        2.22877000      -1.73532000       1.89244000      -0.09048000
C        0.06592000      -2.78647000       2.13534000      -0.10163000
C        2.83556000      -2.98258000       1.79156000      -0.08768000
H        2.83834000      -0.83829000       1.82704000       0.11599000
C        0.65312000      -4.03888000       2.02012000      -0.09144000
H       -1.01140000      -2.73090000       2.21718000       0.11925000
C        2.03171000      -4.12203000       1.83912000       0.02683000
H        3.90534000      -3.08578000       1.65766000       0.12722000
H        0.05023000      -4.93682000       2.03401000       0.12889000
H        1.02822000       0.03173000      -0.34739000       0.13115000
Br      -4.90120000      -0.25091000      -1.17007000      -0.28097000
C       -7.20445000      -0.18220000       4.52129000      -0.19392000
C       -7.53979000       1.16114000       3.86579000      -0.19336000
C       -6.28258000       1.80627000       3.27037000      -0.20378000
C       -5.57623000       0.87165000       2.27224000      -0.01175000
C       -5.23354000      -0.47784000       2.93517000      -0.01319000
C       -6.50674000      -1.11540000       3.52193000      -0.20006000
H       -6.53520000       2.74641000       2.77356000       0.11304000
H       -8.28038000       1.00100000       3.06856000       0.09885000
H       -8.00050000       1.84126000       4.59220000       0.10585000
H       -6.54115000      -0.01352000       5.38177000       0.10004000
H       -8.10971000      -0.66499000       4.90884000       0.10517000
H       -6.23496000       0.66943000       1.41797000       0.11082000
H       -4.50228000      -0.28755000       3.73142000       0.11176000
H       -7.19279000      -1.34290000       2.69191000       0.10263000
H       -6.27334000      -2.06753000       4.00952000       0.10603000
H       -5.57446000       2.05967000       4.07203000       0.10550000
N       -4.33782000       1.44962000       1.70294000      -0.35053000
N       -4.54367000      -1.36105000       1.94310000      -0.34244000
H       -5.23556000      -1.63761000       1.24193000       0.20530000
H       -3.71974000       1.68903000       2.48852000       0.21177000
C       -3.96194000      -2.56997000       2.56494000      -0.08915000
H       -4.65939000      -2.98740000       3.30360000       0.10561000
H       -3.08842000      -2.24100000       3.13973000       0.09965000
C       -4.54149000       2.65462000       0.84309000      -0.09904000
H       -3.73855000       2.64419000       0.10565000       0.11856000
H       -5.47024000       2.50396000       0.28773000       0.10933000
C       -4.54603000       3.97972000       1.57544000      -0.05343000
C       -3.53387000       4.32565000       2.48227000      -0.10902000
C       -5.54100000       4.93090000       1.33060000      -0.09477000
C       -3.52109000       5.56389000       3.11689000      -0.11568000
H       -2.74398000       3.62148000       2.73129000       0.11456000
C       -5.53989000       6.17729000       1.95285000      -0.13828000
H       -6.34698000       4.69397000       0.63832000       0.10679000
C       -4.51752000       6.53353000       2.86000000       0.09347000
H       -2.72218000       5.76730000       3.81971000       0.11058000
H       -6.34505000       6.86678000       1.72908000       0.10951000
C       -3.57126000      -3.67617000       1.60722000      -0.05145000
C       -3.93484000      -3.72671000       0.25868000      -0.09132000
C       -2.83187000      -4.75156000       2.11691000      -0.09911000
C       -3.56749000      -4.80128000      -0.54971000      -0.13564000
H       -4.46022000      -2.90003000      -0.21065000       0.11672000
C       -2.43500000      -5.81932000       1.31951000      -0.14074000
H       -2.54266000      -4.75302000       3.16720000       0.10670000
C       -2.78698000      -5.86823000      -0.05078000       0.09788000
H       -3.85476000      -4.76987000      -1.59374000       0.11230000
H       -1.85260000      -6.61585000       1.76735000       0.11234000
C        0.45779000      -4.35863000      -1.67914000      -0.30211000
H        1.24001000      -4.48369000      -0.92471000       0.10435000
H        0.01215000      -5.33981000      -1.87339000       0.10961000
H        0.91617000      -3.99158000      -2.60279000       0.10683000
C        0.53743000       4.65961000      -0.06928000      -0.30235000
H        0.10310000       5.65770000       0.05198000       0.10998000
H        1.24957000       4.49059000       0.74450000       0.10615000
H        1.07749000       4.62794000      -1.02121000       0.10436000
N        2.64321000      -5.44446000       1.65664000       0.25121000
O        1.88738000      -6.41054000       1.51970000      -0.19834000
O        3.87139000      -5.51245000       1.63907000      -0.19299000
N       -2.35799000      -6.90930000      -0.86133000      -0.25507000
C       -2.65825000      -6.87593000      -2.28155000      -0.18154000
C       -1.29356000      -7.78270000      -0.38560000      -0.18377000
H       -2.30412000      -7.79836000      -2.74592000       0.10426000
H       -3.73989000      -6.81421000      -2.45024000       0.10118000
H       -2.18659000      -6.02538000      -2.80136000       0.09140000
H       -0.40342000      -7.22210000      -0.06125000       0.09793000
H       -1.62894000      -8.40037000       0.45776000       0.09829000
H       -0.99757000      -8.45880000      -1.18978000       0.10440000
N       -4.48723000       7.78727000       3.46953000      -0.25633000
C       -5.66383000       8.63488000       3.38151000      -0.18194000
C       -3.58915000       7.99630000       4.59324000      -0.18224000
H       -5.47235000       9.57169000       3.90937000       0.10287000
H       -5.88615000       8.88712000       2.33793000       0.09910000
H       -6.56345000       8.16886000       3.81748000       0.09212000
H       -3.78621000       7.31058000       5.43386000       0.09291000
H       -2.54445000       7.86499000       4.28832000       0.09941000
H       -3.69735000       9.02188000       4.95301000       0.10248000
