95
R1TS8majorsCNcNO2.xyz  (col5 = NBO charge)
O       -2.30706000       0.15536000      -2.57249000      -0.28123000
N       -1.74127000      -0.93413000      -2.95787000       0.22740000
C       -0.40264000      -1.09357000      -2.76883000      -0.07140000
C        0.35813000      -0.06951000      -2.17902000      -0.04513000
C        1.82750000      -0.14845000      -2.12899000      -0.02820000
O       -1.90797000       1.48863000      -0.00759000      -0.32433000
C       -0.69459000       1.26926000       0.12185000       0.41377000
C       -0.00397000       0.00009000       0.00623000      -0.23195000
C       -0.71522000      -1.24558000       0.10608000       0.41562000
O       -1.93037000      -1.42460000      -0.07546000      -0.33287000
Ni      -3.39179000       0.06745000      -0.59040000       1.34257000
O        0.16709000       2.27993000       0.31493000      -0.27208000
C       -0.41244000       3.60950000       0.40403000      -0.02678000
C       -0.51041000      -3.60790000       0.26176000      -0.02219000
H       -1.19970000      -3.68579000       1.10873000       0.09965000
H       -0.06138000       0.92565000      -2.27542000       0.12538000
H       -0.02568000      -2.06209000      -3.05952000       0.11836000
H       -1.04339000       3.64600000       1.29589000       0.09882000
H       -1.05569000       3.76893000      -0.46362000       0.09871000
O        0.10301000      -2.29374000       0.28361000      -0.27300000
H       -1.09676000      -3.71067000      -0.65704000       0.09452000
O       -2.42253000      -1.84265000      -3.50081000      -0.24767000
C        2.57403000       1.04311000      -2.12532000      -0.08819000
C        2.50980000      -1.37583000      -2.04533000      -0.09197000
C        3.96168000       1.01642000      -2.07044000      -0.07322000
H        2.05465000       1.99649000      -2.15381000       0.11554000
C        3.89646000      -1.41382000      -1.98747000      -0.07281000
H        1.95065000      -2.30369000      -1.99412000       0.11430000
C        4.63375000      -0.21627000      -2.00606000      -0.09070000
H        4.53116000       1.93992000      -2.07379000       0.11990000
H        4.41781000      -2.36311000      -1.92150000       0.11948000
H        1.02155000      -0.00856000       0.34893000       0.13310000
Br      -4.70535000       0.15513000       1.53140000      -0.28732000
C       -7.55951000       0.17896000      -4.06463000      -0.19424000
C       -7.86489000      -1.16953000      -3.40497000      -0.19371000
C       -6.57998000      -1.81880000      -2.87664000      -0.20311000
C       -5.81613000      -0.89870000      -1.90743000      -0.01138000
C       -5.51754000       0.46753000      -2.56458000      -0.01126000
C       -6.81951000       1.10222000      -3.08753000      -0.20037000
H       -6.81115000      -2.76352000      -2.37618000       0.11040000
H       -8.56583000      -1.01636000      -2.57167000       0.09955000
H       -8.35955000      -1.84443000      -4.11324000       0.10687000
H       -6.93601000       0.01827000      -4.95581000       0.10016000
H       -8.48189000       0.66296000      -4.40664000       0.10634000
H       -6.42041000      -0.71203000      -1.01029000       0.10942000
H       -4.81417000       0.30280000      -3.38952000       0.11216000
H       -7.46957000       1.31753000      -2.22586000       0.10220000
H       -6.60839000       2.06212000      -3.57098000       0.10634000
H       -5.91482000      -2.06447000      -3.71737000       0.10418000
N       -4.54749000      -1.49408000      -1.42551000      -0.34337000
N       -4.80486000       1.34594000      -1.59064000      -0.33079000
H       -5.46523000       1.60825000      -0.85607000       0.20277000
H       -3.98229000      -1.76259000      -2.23910000       0.21021000
C       -4.21156000       2.54658000      -2.21205000      -0.10234000
H       -4.88659000       2.96931000      -2.96887000       0.10830000
H       -3.31403000       2.21140000      -2.74091000       0.11964000
C       -4.69248000      -2.64645000      -0.49689000      -0.10832000
H       -3.80695000      -2.64619000       0.14202000       0.12391000
H       -5.53911000      -2.43667000       0.15880000       0.11465000
C       -4.82006000      -4.00707000      -1.15068000       0.00174000
C       -3.86811000      -4.44009000      -2.08900000      -0.10972000
C       -5.85597000      -4.87825000      -0.78556000      -0.10332000
C       -3.95559000      -5.70542000      -2.66041000      -0.08885000
H       -3.06068000      -3.77898000      -2.39031000       0.11809000
C       -5.95618000      -6.15069000      -1.34319000      -0.08931000
H       -6.59476000      -4.55546000      -0.05674000       0.11530000
C       -5.00144000      -6.54563000      -2.27808000       0.02744000
H       -3.23322000      -6.04987000      -3.39017000       0.12591000
H       -6.75370000      -6.83128000      -1.07168000       0.12665000
C       -3.84408000       3.65704000      -1.25076000       0.00404000
C       -4.04257000       3.58891000       0.13301000      -0.10527000
C       -3.26070000       4.81188000      -1.80115000      -0.10546000
C       -3.65885000       4.64841000       0.95397000      -0.08554000
H       -4.43476000       2.69201000       0.60209000       0.12519000
C       -2.84250000       5.86169000      -0.99332000      -0.09410000
H       -3.11353000       4.87720000      -2.87679000       0.11367000
C       -3.04591000       5.76058000       0.38414000       0.02107000
H       -3.79351000       4.59841000       2.02776000       0.12773000
H       -2.36089000       6.74114000      -1.40264000       0.12605000
C        0.61315000      -4.62265000       0.34221000      -0.30217000
H        0.19814000      -5.63593000       0.33843000       0.11076000
H        1.28940000      -4.52387000      -0.51377000       0.10265000
H        1.19497000      -4.48781000       1.25907000       0.10820000
C        0.72111000       4.61272000       0.46390000      -0.30326000
H        1.34536000       4.55111000      -0.43420000       0.10304000
H        0.30434000       5.62434000       0.52525000       0.11141000
H        1.35480000       4.44263000       1.33971000       0.10776000
C        6.06498000      -0.25356000      -1.94950000       0.15964000
N        7.22690000      -0.28465000      -1.90428000      -0.17549000
N       -5.09850000      -7.88586000      -2.87739000       0.25079000
O       -6.03893000      -8.60075000      -2.53113000      -0.19734000
O       -4.23264000      -8.21304000      -3.68928000      -0.19794000
N       -2.54503000       6.82919000       1.25789000       0.25059000
O       -2.90937000       6.83063000       2.43223000      -0.19351000
O       -1.77012000       7.65233000       0.76274000      -0.20071000
