101
R1TS1minorsCNcNMe2.xyz  (col5 = NBO charge)
O       -2.43291000       1.33647000       3.85928000      -0.26482000
N       -1.39258000       1.21682000       3.14597000       0.23201000
C       -1.03161000      -0.05273000       2.73033000      -0.11213000
C        0.19701000      -0.26107000       2.06644000      -0.06554000
C        0.82897000      -1.60426000       2.09881000      -0.01995000
O       -1.91617000      -1.44098000      -0.02592000      -0.33314000
C       -0.73735000      -1.20175000      -0.33745000       0.41565000
C        0.00157000       0.00023000       0.00458000      -0.21808000
C       -0.71350000       1.25869000      -0.03073000       0.41865000
O       -1.93569000       1.38061000       0.15555000      -0.33855000
Ni      -3.30599000      -0.07767000       0.72955000       1.35811000
O        0.01463000      -2.12065000      -0.94751000      -0.26211000
C       -0.62423000      -3.38339000      -1.22768000      -0.11498000
C       -0.57107000       3.60571000      -0.06930000      -0.11334000
H       -1.36191000       3.72569000      -0.81447000       0.09744000
H        0.88774000       0.57509000       2.13620000       0.13118000
H       -1.65846000      -0.83358000       3.12580000       0.11529000
H       -1.50709000      -3.23097000      -1.85109000       0.10209000
H       -0.92697000      -3.87178000      -0.30095000       0.10062000
O        0.06871000       2.31972000      -0.21949000      -0.26165000
H        0.12948000      -3.97425000      -1.74853000       0.09911000
H        0.22121000       4.33708000      -0.22769000       0.09853000
H       -0.99002000       3.69067000       0.93544000       0.10631000
O       -0.70680000       2.21165000       2.81400000      -0.24647000
C        2.22802000      -1.71172000       2.03813000      -0.09191000
C        0.06720000      -2.78460000       2.14420000      -0.10371000
C        2.85300000      -2.95356000       2.02357000      -0.07149000
H        2.83121000      -0.80874000       1.99649000       0.11540000
C        0.67786000      -4.03098000       2.12230000      -0.07404000
H       -1.01423000      -2.73880000       2.13789000       0.11857000
C        2.07833000      -4.12556000       2.06047000      -0.09620000
H        3.93481000      -3.02446000       1.97624000       0.11879000
H        0.06925000      -4.92901000       2.12791000       0.11931000
H        1.02840000       0.03062000      -0.34117000       0.13151000
Br      -4.89370000      -0.23642000      -1.17181000      -0.28059000
C       -7.17403000      -0.24332000       4.54423000      -0.19396000
C       -7.53020000       1.09933000       3.89836000      -0.19336000
C       -6.28581000       1.76331000       3.29662000      -0.20386000
C       -5.57407000       0.84333000       2.28859000      -0.01172000
C       -5.21299000      -0.50688000       2.94111000      -0.01304000
C       -6.47396000      -1.16243000       3.53370000      -0.20003000
H       -6.55472000       2.70235000       2.80667000       0.11318000
H       -8.27524000       0.93441000       3.10625000       0.09883000
H       -7.99324000       1.77016000       4.63186000       0.10592000
H       -6.50568000      -0.07160000       5.40020000       0.10009000
H       -8.07047000      -0.73865000       4.93642000       0.10522000
H       -6.23441000       0.63918000       1.43592000       0.11074000
H       -4.47718000      -0.31427000       3.73261000       0.11173000
H       -7.16413000      -1.39233000       2.70775000       0.10268000
H       -6.22556000      -2.11521000       4.01278000       0.10596000
H       -5.57523000       2.02239000       4.09423000       0.10554000
N       -4.34385000       1.43772000       1.71737000      -0.35029000
N       -4.52438000      -1.37563000       1.93623000      -0.34221000
H       -5.22107000      -1.65363000       1.24052000       0.20548000
H       -3.72779000       1.68200000       2.50295000       0.21158000
C       -3.92034000      -2.58377000       2.53748000      -0.08909000
H       -4.59102000      -3.00356000       3.29899000       0.10579000
H       -3.02730000      -2.25622000       3.08154000       0.09952000
C       -4.55994000       2.64427000       0.86220000      -0.09913000
H       -3.75146000       2.64796000       0.13069000       0.11820000
H       -5.48252000       2.48273000       0.29981000       0.10954000
C       -4.58815000       3.96396000       1.60298000      -0.05377000
C       -3.57282000       4.32601000       2.49981000      -0.10852000
C       -5.61139000       4.89076000       1.38278000      -0.09475000
C       -3.58578000       5.55516000       3.15154000      -0.11492000
H       -2.76058000       3.63986000       2.72667000       0.11425000
C       -5.63594000       6.12848000       2.02160000      -0.13848000
H       -6.41973000       4.64054000       0.69795000       0.10679000
C       -4.61231000       6.49999000       2.92122000       0.09341000
H       -2.78330000       5.77180000       3.84630000       0.11050000
H       -6.46192000       6.79898000       1.81691000       0.10958000
C       -3.56718000      -3.68773000       1.56260000      -0.05036000
C       -3.93135000      -3.70007000       0.21371000      -0.09221000
C       -2.86595000      -4.79726000       2.05182000      -0.09902000
C       -3.61977000      -4.78026000      -0.60939000      -0.13430000
H       -4.41992000      -2.84419000      -0.24238000       0.11746000
C       -2.52676000      -5.87387000       1.23851000      -0.13971000
H       -2.56645000      -4.82314000       3.09884000       0.10675000
C       -2.90738000      -5.89952000      -0.12487000       0.09614000
H       -3.91615000      -4.72284000      -1.64959000       0.11227000
H       -1.97704000      -6.69937000       1.67471000       0.11120000
C        2.70402000      -5.41379000       2.01703000       0.16209000
N        3.19979000      -6.46550000       1.97431000      -0.18088000
N       -4.60911000       7.74501000       3.54864000      -0.25627000
C       -5.80863000       8.56208000       3.48546000      -0.18193000
C       -3.70242000       7.96363000       4.66358000      -0.18227000
H       -5.63606000       9.49637000       4.02417000       0.10281000
H       -6.04951000       8.82252000       2.44801000       0.09921000
H       -6.69052000       8.06631000       3.92482000       0.09210000
H       -3.86792000       7.25966000       5.49585000       0.09293000
H       -2.65845000       7.86807000       4.34316000       0.09946000
H       -3.83607000       8.97990000       5.04072000       0.10248000
N       -2.58547000      -6.97575000      -0.94531000      -0.25462000
C       -1.58991000      -7.93112000      -0.48396000      -0.18196000
C       -2.77859000      -6.84255000      -2.38004000      -0.18164000
H       -1.42902000      -8.68449000      -1.25743000       0.10440000
H       -0.62044000      -7.45919000      -0.25316000       0.09274000
H       -1.93459000      -8.45459000       0.41538000       0.09967000
H       -3.83182000      -6.65381000      -2.61531000       0.10119000
H       -2.18037000      -6.02671000      -2.82012000       0.09122000
H       -2.49618000      -7.77727000      -2.86857000       0.10385000
