96
R1TS1minorsNMe2cNO2.xyz  (col5 = NBO charge)
O       -2.35384000       1.35559000       3.89490000      -0.27375000
N       -1.34554000       1.19091000       3.13569000       0.23072000
C       -1.05714000      -0.08441000       2.69677000      -0.12115000
C        0.18584000      -0.34605000       2.04703000      -0.05024000
C        0.75539000      -1.70661000       2.05173000      -0.07578000
O       -1.91312000      -1.45420000      -0.01911000      -0.33555000
C       -0.74136000      -1.19615000      -0.34891000       0.42090000
C       -0.00381000       0.00062000       0.01254000      -0.22086000
C       -0.70911000       1.25987000      -0.03102000       0.42028000
O       -1.93374000       1.38666000       0.15252000      -0.34156000
Ni      -3.23241000      -0.06850000       0.82647000       1.35014000
O        0.00955000      -2.08141000      -1.00390000      -0.25955000
C       -0.58713000      -3.35723000      -1.29908000      -0.11371000
C       -0.55163000       3.60675000      -0.08438000      -0.11302000
H       -1.34826000       3.73332000      -0.82274000       0.09606000
H        0.90784000       0.46155000       2.13988000       0.12976000
H       -1.66508000      -0.84332000       3.15985000       0.11581000
H       -1.51693000      -3.22316000      -1.85562000       0.10018000
H       -0.78486000      -3.89526000      -0.37117000       0.09836000
O        0.07406000       2.31637000      -0.23661000      -0.26016000
H        0.15169000      -3.88776000      -1.89954000       0.10081000
H        0.24465000       4.33153000      -0.25239000       0.09956000
H       -0.95710000       3.69841000       0.92537000       0.10480000
O       -0.64573000       2.16539000       2.76996000      -0.24813000
C        2.12312000      -1.90199000       1.79189000      -0.07335000
C       -0.03249000      -2.85949000       2.19869000      -0.08490000
C        2.67689000      -3.16764000       1.66719000      -0.13693000
H        2.76708000      -1.03449000       1.66420000       0.10943000
C        0.50112000      -4.13308000       2.08225000      -0.14399000
H       -1.09860000      -2.77083000       2.36331000       0.10738000
C        1.87293000      -4.32958000       1.79193000       0.11109000
H        3.73573000      -3.25193000       1.45505000       0.11298000
H       -0.16197000      -4.97937000       2.19641000       0.11214000
H        1.02416000       0.02796000      -0.32918000       0.13184000
Br      -4.90573000      -0.23603000      -1.01961000      -0.28126000
C       -7.08754000      -0.03379000       4.70214000      -0.19391000
C       -7.41776000       1.29872000       4.02384000      -0.19335000
C       -6.16228000       1.90757000       3.38894000      -0.20353000
C       -5.49146000       0.94084000       2.39674000      -0.01183000
C       -5.15925000      -0.40184000       3.07599000      -0.01370000
C       -6.42933000      -1.00185000       3.70899000      -0.20034000
H       -6.41443000       2.83975000       2.87555000       0.11048000
H       -8.17740000       1.13326000       3.24612000       0.09944000
H       -7.85098000       2.00248000       4.74412000       0.10710000
H       -6.40160000       0.14369000       5.54266000       0.10089000
H       -7.99052000      -0.49308000       5.12150000       0.10617000
H       -6.16895000       0.73607000       1.55795000       0.11159000
H       -4.40123000      -0.21366000       3.84695000       0.11357000
H       -7.13913000      -1.23993000       2.90226000       0.10303000
H       -6.20220000      -1.94343000       4.21955000       0.10543000
H       -5.43449000       2.16696000       4.17072000       0.10627000
N       -4.25194000       1.48699000       1.79952000      -0.35176000
N       -4.51591000      -1.31297000       2.07510000      -0.34407000
H       -5.22397000      -1.54678000       1.37353000       0.20601000
H       -3.61551000       1.71557000       2.57512000       0.21283000
C       -4.00123000      -2.54672000       2.69472000      -0.09853000
H       -4.72805000      -2.95876000       3.40713000       0.11133000
H       -3.12631000      -2.26897000       3.29300000       0.10796000
C       -4.45664000       2.67715000       0.93183000      -0.10718000
H       -3.66542000       2.66168000       0.18144000       0.12642000
H       -5.39570000       2.53554000       0.39266000       0.11277000
C       -4.42498000       4.01853000       1.63803000      -0.00008000
C       -3.41358000       4.33195000       2.56235000      -0.11178000
C       -5.38168000       4.99427000       1.32124000      -0.10511000
C       -3.36888000       5.58714000       3.16287000      -0.08655000
H       -2.65631000       3.60204000       2.83404000       0.12329000
C       -5.34728000       6.25549000       1.90942000      -0.09017000
H       -6.16669000       4.76175000       0.60614000       0.11409000
C       -4.33714000       6.53350000       2.82853000       0.02623000
H       -2.59761000       5.83960000       3.88009000       0.12675000
H       -6.08332000       7.01461000       1.67529000       0.12586000
C       -3.62856000      -3.66326000       1.74420000       0.00055000
C       -3.87850000      -3.63688000       0.36809000      -0.10307000
C       -3.01831000      -4.79648000       2.30978000      -0.10418000
C       -3.49704000      -4.71196000      -0.43437000      -0.08369000
H       -4.31723000      -2.76572000      -0.10831000       0.12596000
C       -2.60882000      -5.86128000       1.51978000      -0.09504000
H       -2.83764000      -4.82952000       3.38172000       0.11463000
C       -2.84047000      -5.79423000       0.14496000       0.02093000
H       -3.66667000      -4.69541000      -1.50393000       0.12763000
H       -2.10903000      -6.72515000       1.94002000       0.12636000
N        2.39060000      -5.59651000       1.63195000      -0.24475000
C        3.78111000      -5.76564000       1.24337000      -0.18192000
C        1.49590000      -6.74566000       1.61509000      -0.18304000
H        4.01172000      -6.83035000       1.18370000       0.10573000
H        3.99749000      -5.31195000       0.26438000       0.09655000
H        4.45752000      -5.31845000       1.98313000       0.09958000
H        0.98748000      -6.86948000       2.58081000       0.09764000
H        0.72526000      -6.67019000       0.83427000       0.09922000
H        2.07584000      -7.65054000       1.42844000       0.10654000
N       -2.31990000      -6.86536000      -0.71370000       0.25136000
O       -1.60692000      -7.72469000      -0.18681000      -0.20128000
O       -2.60223000      -6.83300000      -1.91015000      -0.19349000
N       -4.29367000       7.86006000       3.46190000       0.25088000
O       -5.16653000       8.67196000       3.15155000      -0.19955000
O       -3.38757000       8.08231000       4.26518000      -0.19751000
