86
R1TS1majorsNO2.xyz  (col5 = NBO charge)
O       -2.28437000       0.18420000      -2.57351000      -0.28101000
N       -1.72913000      -0.90530000      -2.97241000       0.22775000
C       -0.39648000      -1.08930000      -2.75719000      -0.07506000
C        0.36938000      -0.08008000      -2.14485000      -0.05209000
C        1.84061000      -0.18978000      -2.09543000      -0.02022000
O       -1.90661000       1.48964000       0.00322000      -0.31894000
C       -0.69469000       1.27188000       0.11228000       0.41400000
C       -0.00191000      -0.00011000       0.00065000      -0.23168000
C       -0.72163000      -1.24344000       0.12370000       0.41659000
O       -1.92727000      -1.43016000      -0.08874000      -0.32679000
Ni      -3.39764000       0.06831000      -0.58799000       1.33843000
O        0.16850000       2.28786000       0.27767000      -0.26837000
C       -0.41604000       3.60705000       0.35299000      -0.11390000
C       -0.54539000      -3.58075000       0.38372000      -0.11268000
H       -1.27767000      -3.63174000       1.19367000       0.10035000
H       -0.02351000       0.92392000      -2.26306000       0.12517000
H       -0.02651000      -2.05933000      -3.05211000       0.11798000
H       -1.09601000       3.67546000       1.20380000       0.10244000
H       -0.97746000       3.83622000      -0.55568000       0.09878000
O        0.09074000      -2.28743000       0.36292000      -0.26802000
H        0.42849000       4.28562000       0.47308000       0.09826000
H        0.26145000      -4.29463000       0.54979000       0.09931000
H       -1.04977000      -3.77664000      -0.56671000       0.09723000
O       -2.40974000      -1.78867000      -3.55210000      -0.24596000
C        2.61603000       0.98142000      -2.15728000      -0.08884000
C        2.49074000      -1.42986000      -1.95481000      -0.09222000
C        4.00421000       0.92311000      -2.11137000      -0.08999000
H        2.12097000       1.94474000      -2.23470000       0.11641000
C        3.87708000      -1.50310000      -1.90493000      -0.08989000
H        1.90574000      -2.33700000      -1.85075000       0.11605000
C        4.61688000      -0.32321000      -1.99053000       0.03431000
H        4.61390000       1.81640000      -2.16500000       0.12817000
H        4.39239000      -2.44918000      -1.79539000       0.12788000
H        1.01606000      -0.00688000       0.36667000       0.13306000
Br      -4.66349000       0.06540000       1.56190000      -0.28772000
C       -7.52205000       0.59029000      -4.04093000      -0.19430000
C       -7.87810000      -0.79468000      -3.49108000      -0.19352000
C       -6.62283000      -1.53419000      -3.01113000      -0.20371000
C       -5.82983000      -0.72505000      -1.96779000      -0.01172000
C       -5.47660000       0.67500000      -2.52328000      -0.01040000
C       -6.75064000       1.40090000      -2.99167000      -0.20026000
H       -6.89331000      -2.50613000      -2.59198000       0.11307000
H       -8.57801000      -0.68172000      -2.65025000       0.09890000
H       -8.39394000      -1.39301000      -4.25162000       0.10583000
H       -6.90184000       0.47858000      -4.94202000       0.09951000
H       -8.42512000       1.13415000      -4.34322000       0.10522000
H       -6.43374000      -0.58331000      -1.06202000       0.10857000
H       -4.78257000       0.54163000      -3.36180000       0.11143000
H       -7.39421000       1.56811000      -2.11458000       0.10186000
H       -6.49862000       2.39012000      -3.38947000       0.10634000
H       -5.96111000      -1.73694000      -3.86597000       0.10352000
N       -4.58689000      -1.40183000      -1.52475000      -0.34176000
N       -4.72987000       1.45516000      -1.49652000      -0.33047000
H       -5.38151000       1.71505000      -0.75354000       0.20336000
H       -4.03261000      -1.64770000      -2.35283000       0.20982000
C       -4.05406000       2.66158000      -2.03164000      -0.09708000
H       -4.61220000       3.06211000      -2.88769000       0.10410000
H       -3.08421000       2.33216000      -2.41600000       0.11598000
C       -4.76253000      -2.60612000      -0.66560000      -0.10476000
H       -3.83362000      -2.70892000      -0.10062000       0.11820000
H       -5.53786000      -2.37153000       0.06594000       0.11311000
C       -5.05321000      -3.90272000      -1.39393000      -0.02246000
C       -4.16813000      -4.38290000      -2.37092000      -0.11134000
C       -6.18459000      -4.66414000      -1.07724000      -0.10730000
C       -4.42322000      -5.58719000      -3.02738000      -0.10255000
H       -3.28355000      -3.80570000      -2.62917000       0.11304000
C       -6.43807000      -5.87391000      -1.72824000      -0.10435000
H       -6.87379000      -4.30329000      -0.31676000       0.10930000
C       -5.55912000      -6.33680000      -2.70893000      -0.11080000
H       -3.73269000      -5.94230000      -3.78812000       0.10842000
H       -7.32262000      -6.45093000      -1.47126000       0.10884000
H       -5.75594000      -7.27520000      -3.22050000       0.10853000
C       -3.85850000       3.77896000      -1.02606000      -0.02109000
C       -4.00836000       3.61245000       0.35519000      -0.11044000
C       -3.47344000       5.03584000      -1.51707000      -0.11004000
C       -3.78577000       4.68657000       1.22186000      -0.10277000
H       -4.26034000       2.64437000       0.77673000       0.12081000
C       -3.23414000       6.10232000      -0.65091000      -0.10714000
H       -3.35911000       5.17911000      -2.59031000       0.10738000
C       -3.39389000       5.93106000       0.72745000      -0.11341000
H       -3.91058000       4.53670000       2.29109000       0.11074000
H       -2.93499000       7.06739000      -1.05170000       0.10861000
H       -3.21791000       6.76152000       1.40602000       0.10875000
N        6.08614000      -0.39577000      -1.94092000       0.25008000
O        6.71220000       0.66139000      -2.01269000      -0.19523000
O        6.59879000      -1.50929000      -1.83110000      -0.19517000
