94
R1TS8minorsOMe.xyz  (col5 = NBO charge)
O       -2.35289000       1.27136000       3.92584000      -0.27208000
N       -1.33783000       1.16403000       3.16863000       0.22991000
C       -0.98814000      -0.09365000       2.72413000      -0.11350000
C        0.23876000      -0.29374000       2.04119000      -0.05600000
C        0.88807000      -1.62469000       2.07048000      -0.05756000
O       -1.91689000      -1.44141000      -0.02736000      -0.33676000
C       -0.73355000      -1.20730000      -0.33376000       0.41904000
C       -0.00037000      -0.00006000      -0.00167000      -0.22052000
C       -0.71294000       1.26039000      -0.02570000       0.41910000
O       -1.93739000       1.38518000       0.15452000      -0.33971000
Ni      -3.27410000      -0.08224000       0.76100000       1.35869000
O        0.02411000      -2.13869000      -0.91082000      -0.26701000
C       -0.58711000      -3.43926000      -1.12899000      -0.02839000
C       -0.55013000       3.62081000      -0.00078000      -0.02470000
H       -1.27400000       3.77858000      -0.80727000       0.09623000
H        0.91953000       0.55120000       2.10808000       0.12961000
H       -1.58300000      -0.88286000       3.15150000       0.11423000
H       -1.36616000      -3.32885000      -1.88846000       0.09879000
H       -1.06455000      -3.76406000      -0.20452000       0.10343000
O        0.07303000       2.32116000      -0.19135000      -0.26753000
H       -1.08379000       3.60481000       0.95215000       0.10699000
O       -0.67555000       2.17211000       2.82243000      -0.25077000
C        2.28009000      -1.72123000       1.95462000      -0.07707000
C        0.15451000      -2.82324000       2.16036000      -0.09273000
C        2.93281000      -2.95428000       1.93646000      -0.14865000
H        2.87135000      -0.81224000       1.87297000       0.11078000
C        0.78493000      -4.05642000       2.13737000      -0.12496000
H       -0.92746000      -2.79797000       2.19764000       0.11170000
C        2.18224000      -4.13437000       2.02322000       0.17002000
H        4.01252000      -2.98204000       1.84864000       0.11506000
H        0.21151000      -4.97657000       2.18085000       0.11569000
H        1.02494000       0.03219000      -0.35113000       0.13092000
Br      -4.93862000      -0.16948000      -1.09051000      -0.28323000
C       -6.98245000      -0.40108000       4.72528000      -0.19404000
C       -7.37624000       0.95934000       4.14150000      -0.19328000
C       -6.16401000       1.65157000       3.50705000      -0.20416000
C       -5.49289000       0.77311000       2.43600000      -0.01133000
C       -5.09948000      -0.60029000       3.02126000      -0.01332000
C       -6.32763000      -1.28157000       3.65211000      -0.20008000
H       -6.46123000       2.60474000       3.06212000       0.11247000
H       -8.15560000       0.81509000       3.37892000       0.09878000
H       -7.80914000       1.60210000       4.91727000       0.10617000
H       -6.27437000      -0.25268000       5.55312000       0.10037000
H       -7.85643000      -0.91488000       5.14355000       0.10521000
H       -6.18731000       0.59837000       1.60399000       0.11069000
H       -4.32434000      -0.43314000       3.78027000       0.11250000
H       -7.05609000      -1.48829000       2.85330000       0.10252000
H       -6.05185000      -2.24842000       4.08649000       0.10571000
H       -5.41947000       1.88762000       4.28030000       0.10617000
N       -4.28792000       1.39564000       1.84069000      -0.35269000
N       -4.46403000      -1.42916000       1.95056000      -0.34229000
H       -5.19163000      -1.67044000       1.27331000       0.20555000
H       -3.64513000       1.61450000       2.61353000       0.21265000
C       -3.83212000      -2.66088000       2.46350000      -0.09364000
H       -4.45453000      -3.11456000       3.24615000       0.10778000
H       -2.90326000      -2.36127000       2.95900000       0.10310000
C       -4.53689000       2.62121000       1.02972000      -0.10283000
H       -3.73557000       2.66867000       0.29105000       0.12114000
H       -5.46153000       2.46076000       0.47104000       0.11093000
C       -4.57592000       3.92421000       1.80488000      -0.02437000
C       -3.54931000       4.26492000       2.69965000      -0.11368000
C       -5.61624000       4.83726000       1.59204000      -0.10852000
C       -3.57812000       5.48864000       3.37038000      -0.10106000
H       -2.72996000       3.57765000       2.89403000       0.11753000
C       -5.64101000       6.06449000       2.25846000      -0.10515000
H       -6.41533000       4.58275000       0.89867000       0.10819000
C       -4.62104000       6.39283000       3.15309000      -0.11162000
H       -2.77926000       5.73444000       4.06524000       0.10910000
H       -6.45844000       6.75897000       2.08175000       0.10816000
H       -4.63877000       7.34471000       3.67747000       0.10794000
C       -3.54517000      -3.73386000       1.43030000      -0.02019000
C       -3.96704000      -3.66765000       0.09916000      -0.10655000
C       -2.85352000      -4.87537000       1.86582000      -0.11175000
C       -3.72038000      -4.73524000      -0.76953000      -0.10042000
H       -4.44629000      -2.77622000      -0.29356000       0.11935000
C       -2.59374000      -5.93287000       0.99499000      -0.10667000
H       -2.51870000      -4.93588000       2.90017000       0.10794000
C       -3.03638000      -5.86869000      -0.33012000      -0.11297000
H       -4.05578000      -4.66421000      -1.80066000       0.11095000
H       -2.05476000      -6.80680000       1.35142000       0.10949000
H       -2.84451000      -6.69337000      -1.01131000       0.10919000
C        0.51762000      -4.38413000      -1.55412000      -0.30221000
H        1.27105000      -4.46754000      -0.76478000       0.10681000
H        0.09326000      -5.37759000      -1.73498000       0.10872000
H        1.00426000      -4.03860000      -2.47192000       0.10517000
C        0.56260000       4.64933000      -0.01401000      -0.30223000
H        0.13801000       5.65004000       0.11996000       0.10926000
H        1.26584000       4.45917000       0.80280000       0.10633000
H        1.11057000       4.62756000      -0.96175000       0.10416000
O        2.70191000      -5.39267000       1.99342000      -0.27291000
C        4.10860000      -5.53876000       1.85965000      -0.11054000
H        4.64348000      -5.08155000       2.70294000       0.08987000
H        4.29841000      -6.61352000       1.85225000       0.10002000
H        4.47171000      -5.09920000       0.92082000       0.08958000
