107
R1TS8majorsCNcNMe2.xyz  (col5 = NBO charge)
O       -2.26669000       0.15803000      -2.58466000      -0.28271000
N       -1.69718000      -0.92894000      -2.96938000       0.22628000
C       -0.36228000      -1.09244000      -2.75064000      -0.09254000
C        0.38558000      -0.07077000      -2.13596000       0.00039000
C        1.85739000      -0.15369000      -2.07514000      -0.04082000
O       -1.90748000       1.48326000      -0.00253000      -0.31904000
C       -0.69528000       1.27124000       0.11596000       0.41370000
C       -0.00016000       0.00064000       0.00642000      -0.23380000
C       -0.71931000      -1.24486000       0.11119000       0.41594000
O       -1.92990000      -1.42248000      -0.07993000      -0.32696000
Ni      -3.39668000       0.07522000      -0.60783000       1.34069000
O        0.16323000       2.29048000       0.28470000      -0.27489000
C       -0.42774000       3.61828000       0.34669000      -0.02785000
C       -0.52569000      -3.60485000       0.26333000      -0.02317000
H       -1.22558000      -3.68313000       1.10132000       0.09978000
H       -0.02430000       0.92627000      -2.25595000       0.12036000
H        0.02047000      -2.06009000      -3.03645000       0.11659000
H       -1.09981000       3.66010000       1.20683000       0.10115000
H       -1.03790000       3.78143000      -0.54495000       0.10180000
O        0.09690000      -2.29518000       0.29965000      -0.27496000
H       -1.10312000      -3.69847000      -0.66195000       0.09736000
O       -2.36469000      -1.82795000      -3.54019000      -0.24631000
C        2.61051000       1.03303000      -2.09329000      -0.09210000
C        2.53313000      -1.38183000      -1.95940000      -0.09473000
C        3.99787000       1.00054000      -2.02838000      -0.07357000
H        2.09587000       1.98783000      -2.14718000       0.11533000
C        3.91926000      -1.42600000      -1.89133000      -0.07307000
H        1.96690000      -2.30409000      -1.88936000       0.11472000
C        4.66364000      -0.23337000      -1.93181000      -0.09400000
H        4.57209000       1.92101000      -2.04889000       0.11890000
H        4.43479000      -2.37649000      -1.79997000       0.11867000
H        1.01747000      -0.00806000       0.37291000       0.13202000
Br      -4.69990000       0.12457000       1.52483000      -0.29114000
C       -7.50285000       0.45866000      -4.10206000      -0.19420000
C       -7.84956000      -0.91111000      -3.50937000      -0.19356000
C       -6.58949000      -1.62239000      -3.00071000      -0.20351000
C       -5.80937000      -0.77184000      -1.98120000      -0.01133000
C       -5.46496000       0.61279000      -2.57841000      -0.01063000
C       -6.74378000       1.31054000      -3.07654000      -0.20011000
H       -6.84954000      -2.58377000      -2.55128000       0.11303000
H       -8.55401000      -0.77687000      -2.67538000       0.09856000
H       -8.35715000      -1.53799000      -4.25249000       0.10526000
H       -6.87679000       0.32280000      -4.99582000       0.09928000
H       -8.40907000       0.98433000      -4.42689000       0.10462000
H       -6.41940000      -0.60562000      -1.08377000       0.10823000
H       -4.76581000       0.45917000      -3.40923000       0.11101000
H       -7.39324000       1.50010000      -2.20833000       0.10154000
H       -6.49938000       2.28830000      -3.50582000       0.10623000
H       -5.92212000      -1.84580000      -3.84598000       0.10336000
N       -4.56539000      -1.42464000      -1.50927000      -0.34219000
N       -4.72937000       1.43206000      -1.57433000      -0.33029000
H       -5.38634000       1.71236000      -0.84354000       0.20259000
H       -4.00465000      -1.69011000      -2.32666000       0.20941000
C       -4.06266000       2.62502000      -2.14931000      -0.09384000
H       -4.65184000       3.02327000      -2.98657000       0.10168000
H       -3.11629000       2.27410000      -2.57169000       0.11349000
C       -4.74446000      -2.61482000      -0.62487000      -0.10176000
H       -3.84920000      -2.66148000      -0.00210000       0.11663000
H       -5.57242000      -2.39378000       0.05162000       0.11108000
C       -4.94276000      -3.93449000      -1.33638000      -0.05150000
C       -3.98396000      -4.42309000      -2.23421000      -0.09747000
C       -6.05909000      -4.73944000      -1.09120000      -0.10369000
C       -4.14110000      -5.64741000      -2.87550000      -0.13544000
H       -3.09937000      -3.83022000      -2.45500000       0.11144000
C       -6.23106000      -5.97186000      -1.71758000      -0.11252000
H       -6.81711000      -4.39942000      -0.38808000       0.10733000
C       -5.27958000      -6.45428000      -2.64375000       0.09149000
H       -3.36776000      -5.97181000      -3.56151000       0.10943000
H       -7.11434000      -6.55283000      -1.48103000       0.10619000
C       -3.81325000       3.74697000      -1.16261000      -0.04657000
C       -3.98058000       3.63281000       0.22009000      -0.09552000
C       -3.33900000       4.96929000      -1.65466000      -0.09706000
C       -3.69235000       4.69521000       1.07476000      -0.13535000
H       -4.29119000       2.69448000       0.66927000       0.11943000
C       -3.02609000       6.03264000      -0.81305000      -0.13859000
H       -3.19301000       5.09504000      -2.72667000       0.10607000
C       -3.20634000       5.92669000       0.58575000       0.09336000
H       -3.83231000       4.53782000       2.13731000       0.11197000
H       -2.65036000       6.94778000      -1.25475000       0.10958000
C        0.59051000      -4.62740000       0.35101000      -0.30192000
H        0.16858000      -5.63787000       0.33907000       0.11022000
H        1.27611000      -4.52991000      -0.49787000       0.10187000
H        1.16464000      -4.50019000       1.27402000       0.10698000
C        0.70980000       4.61298000       0.45471000      -0.30181000
H        1.37034000       4.55175000      -0.41713000       0.10269000
H        0.29681000       5.62654000       0.50315000       0.10865000
H        1.30756000       4.43489000       1.35445000       0.10565000
C        6.09417000      -0.27625000      -1.86446000       0.16081000
N        7.25577000      -0.31135000      -1.81029000      -0.17888000
N       -5.45891000      -7.66667000      -3.30717000      -0.25585000
C       -4.34267000      -8.23598000      -4.04243000      -0.18197000
C       -6.49709000      -8.57153000      -2.84407000      -0.18226000
H       -4.65496000      -9.17901000      -4.49621000       0.10293000
H       -4.02894000      -7.56986000      -4.85483000       0.09949000
H       -3.46408000      -8.43254000      -3.40550000       0.09203000
H       -6.36179000      -8.87829000      -1.79361000       0.09261000
H       -7.48761000      -8.11033000      -2.93641000       0.09915000
H       -6.49599000      -9.46878000      -3.46669000       0.10292000
N       -2.91981000       6.99296000       1.44104000      -0.25687000
C       -2.83431000       6.72803000       2.86835000      -0.18189000
C       -2.13142000       8.09956000       0.92708000      -0.18148000
H       -2.60411000       7.65806000       3.39283000       0.10269000
H       -3.79204000       6.36266000       3.25419000       0.10130000
H       -2.05983000       5.98414000       3.12201000       0.09138000
H       -1.13661000       7.78829000       0.56248000       0.08958000
H       -2.65066000       8.60026000       0.10215000       0.09972000
H       -1.99017000       8.83868000       1.71866000       0.10353000
