96
R1TS8majorsNO2cNO2.xyz  (col5 = NBO charge)
O       -2.32744000       0.15107000      -2.57283000      -0.28019000
N       -1.76156000      -0.93786000      -2.95666000       0.22847000
C       -0.42039000      -1.09435000      -2.77243000      -0.07166000
C        0.33896000      -0.06826000      -2.18782000      -0.04618000
C        1.80919000      -0.14279000      -2.14105000      -0.02377000
O       -1.90771000       1.48910000      -0.00811000      -0.32467000
C       -0.69433000       1.26974000       0.12228000       0.41345000
C       -0.00472000       0.00025000       0.00666000      -0.23194000
C       -0.71493000      -1.24596000       0.10502000       0.41529000
O       -1.93043000      -1.42533000      -0.07474000      -0.33265000
Ni      -3.39511000       0.07007000      -0.57764000       1.34230000
O        0.16757000       2.27983000       0.31492000      -0.27202000
C       -0.41041000       3.61042000       0.40294000      -0.02674000
C       -0.50767000      -3.60869000       0.25422000      -0.02255000
H       -1.19516000      -3.68901000       1.10239000       0.09950000
H       -0.08494000       0.92543000      -2.27932000       0.12572000
H       -0.04320000      -2.06339000      -3.06111000       0.11866000
H       -1.03763000       3.64953000       1.29730000       0.09882000
H       -1.05702000       3.76817000      -0.46252000       0.09873000
O        0.10453000      -2.29374000       0.27781000      -0.27316000
H       -1.09582000      -3.70941000      -0.66365000       0.09557000
O       -2.44196000      -1.84955000      -3.49339000      -0.24516000
C        2.55163000       1.05201000      -2.14893000      -0.08697000
C        2.49357000      -1.36934000      -2.05119000      -0.09049000
C        3.94035000       1.03072000      -2.09797000      -0.09024000
H        2.02987000       2.00364000      -2.18373000       0.11617000
C        3.88117000      -1.40524000      -1.99699000      -0.09006000
H        1.93639000      -2.29764000      -1.99121000       0.11502000
C        4.58698000      -0.20229000      -2.02751000       0.03607000
H        4.52494000       1.94215000      -2.10896000       0.12866000
H        4.42303000      -2.34007000      -1.92581000       0.12827000
H        1.02242000      -0.00877000       0.34445000       0.13273000
Br      -4.68909000       0.16598000       1.55510000      -0.28692000
C       -7.58978000       0.18159000      -4.01794000      -0.19426000
C       -7.89316000      -1.16403000      -3.35139000      -0.19370000
C       -6.60562000      -1.81500000      -2.83151000      -0.20307000
C       -5.83141000      -0.89337000      -1.87215000      -0.01144000
C       -5.53510000       0.47022000      -2.53580000      -0.01116000
C       -6.83990000       1.10634000      -3.04974000      -0.20037000
H       -6.83503000      -2.75729000      -2.32553000       0.11040000
H       -8.58677000      -1.00628000      -2.51283000       0.09951000
H       -8.39539000      -1.83992000      -4.05334000       0.10691000
H       -6.97370000       0.01653000      -4.91346000       0.10018000
H       -8.51371000       0.66660000      -4.35423000       0.10638000
H       -6.42769000      -0.70250000      -0.97052000       0.10963000
H       -4.83918000       0.30161000      -3.36629000       0.11202000
H       -7.48234000       1.32563000      -2.18339000       0.10223000
H       -6.63054000       2.06432000      -3.53773000       0.10630000
H       -5.94836000      -2.06560000      -3.67699000       0.10416000
N       -4.56008000      -1.49030000      -1.39899000      -0.34305000
N       -4.81219000       1.34943000      -1.56996000      -0.33094000
H       -5.46617000       1.61545000      -0.83105000       0.20287000
H       -4.00328000      -1.76393000      -2.21644000       0.21001000
C       -4.22072000       2.54725000      -2.19857000      -0.10226000
H       -4.89939000       2.96814000      -2.95316000       0.10833000
H       -3.32642000       2.20948000      -2.73110000       0.11954000
C       -4.70055000      -2.63921000      -0.46490000      -0.10816000
H       -3.81376000      -2.63450000       0.17219000       0.12407000
H       -5.54614000      -2.42858000       0.19184000       0.11453000
C       -4.82731000      -4.00241000      -1.11319000       0.00169000
C       -3.87772000      -4.43695000      -2.05315000      -0.10951000
C       -5.85978000      -4.87460000      -0.74087000      -0.10333000
C       -3.96403000      -5.70480000      -2.61911000      -0.08893000
H       -3.07293000      -3.77524000      -2.36000000       0.11855000
C       -5.95870000      -6.14963000      -1.29281000      -0.08942000
H       -6.59669000      -4.55079000      -0.01061000       0.11517000
C       -5.00630000      -6.54605000      -2.22943000       0.02744000
H       -3.24337000      -6.05043000      -3.35001000       0.12590000
H       -6.75343000      -6.83116000      -1.01552000       0.12665000
C       -3.84704000       3.66046000      -1.24284000       0.00397000
C       -4.03902000       3.59746000       0.14211000      -0.10543000
C       -3.26477000       4.81255000      -1.80004000      -0.10551000
C       -3.65075000       4.65967000       0.95742000      -0.08553000
H       -4.42946000       2.70265000       0.61659000       0.12517000
C       -2.84187000       5.86487000      -0.99794000      -0.09400000
H       -3.12234000       4.87383000      -2.87656000       0.11371000
C       -3.03951000       5.76921000       0.38074000       0.02111000
H       -3.78077000       4.61381000       2.03197000       0.12776000
H       -2.36111000       6.74226000      -1.41264000       0.12603000
C        0.61699000      -4.62250000       0.33006000      -0.30218000
H        0.20279000      -5.63610000       0.32516000       0.11077000
H        1.29140000      -4.52166000      -0.52710000       0.10260000
H        1.20071000      -4.48907000       1.24590000       0.10812000
C        0.72440000       4.61258000       0.45573000      -0.30331000
H        1.34542000       4.54766000      -0.44434000       0.10310000
H        0.30884000       5.62480000       0.51540000       0.11144000
H        1.36106000       4.44462000       1.32975000       0.10783000
N        6.05845000      -0.23592000      -1.97266000       0.24999000
O        6.60034000      -1.33851000      -1.90482000      -0.19436000
O        6.65367000       0.84046000      -1.99841000      -0.19415000
N       -5.10194000      -7.88915000      -2.82270000       0.25081000
O       -6.03901000      -8.60509000      -2.46968000      -0.19741000
O       -4.23832000      -8.21727000      -3.63653000      -0.19794000
N       -2.53437000       6.84098000       1.24827000       0.25057000
O       -2.89366000       6.84694000       2.42413000      -0.19350000
O       -1.76142000       7.66187000       0.74653000      -0.20058000
