92
R1TS1minorsOMecNO2.xyz  (col5 = NBO charge)
O       -2.39118000       1.29573000       3.91079000      -0.27144000
N       -1.37328000       1.17724000       3.15818000       0.23074000
C       -1.02843000      -0.08684000       2.72407000      -0.11423000
C        0.20968000      -0.29875000       2.06623000      -0.05212000
C        0.84683000      -1.63219000       2.10728000      -0.06092000
O       -1.91581000      -1.44953000      -0.02612000      -0.33888000
C       -0.73485000      -1.20335000      -0.33693000       0.41808000
C       -0.00287000       0.00019000       0.00214000      -0.22229000
C       -0.71162000       1.25917000      -0.02816000       0.41932000
O       -1.93599000       1.39031000       0.15509000      -0.34143000
Ni      -3.26494000      -0.07366000       0.76134000       1.35481000
O        0.02103000      -2.11823000      -0.94398000      -0.25953000
C       -0.59877000      -3.38886000      -1.22404000      -0.11370000
C       -0.55116000       3.60667000      -0.05631000      -0.11301000
H       -1.33685000       3.74087000      -0.80484000       0.09655000
H        0.89424000       0.54274000       2.13411000       0.13031000
H       -1.62319000      -0.87015000       3.16307000       0.11512000
H       -1.47558000      -3.25036000      -1.85955000       0.10083000
H       -0.89454000      -3.87679000      -0.29426000       0.09764000
O        0.07558000       2.31680000      -0.21340000      -0.26065000
H        0.16516000      -3.97286000      -1.73652000       0.10152000
H        0.24842000       4.33186000      -0.20561000       0.09957000
H       -0.97134000       3.68825000       0.94846000       0.10471000
O       -0.70853000       2.17898000       2.80357000      -0.24727000
C        2.24239000      -1.73743000       2.05123000      -0.07535000
C        0.10159000      -2.82616000       2.16627000      -0.09316000
C        2.88695000      -2.97421000       2.07018000      -0.14769000
H        2.84252000      -0.83250000       1.99378000       0.11153000
C        0.72459000      -4.06275000       2.17841000      -0.12512000
H       -0.98088000      -2.79016000       2.15555000       0.11013000
C        2.12633000      -4.14999000       2.13310000       0.17357000
H        3.96926000      -3.00934000       2.03271000       0.11587000
H        0.14736000      -4.98122000       2.20823000       0.11475000
H        1.02530000       0.03017000      -0.33847000       0.13225000
Br      -4.91673000      -0.16172000      -1.09894000      -0.27928000
C       -7.01960000      -0.31983000       4.70027000      -0.19410000
C       -7.40309000       1.03351000       4.09425000      -0.19339000
C       -6.18195000       1.71034000       3.46027000      -0.20387000
C       -5.50673000       0.81372000       2.40733000      -0.01166000
C       -5.12659000      -0.55440000       3.01195000      -0.01343000
C       -6.36227000      -1.21996000       3.64484000      -0.20038000
H       -6.47387000       2.65768000       2.99852000       0.11081000
H       -8.17692000       0.88277000       3.32758000       0.09943000
H       -7.83818000       1.68930000       4.85732000       0.10729000
H       -6.31709000      -0.16329000       5.53116000       0.10096000
H       -7.89895000      -0.82317000       5.11908000       0.10640000
H       -6.19423000       0.63364000       1.57085000       0.11143000
H       -4.35322000      -0.38506000       3.77201000       0.11338000
H       -7.08661000      -1.43688000       2.84507000       0.10300000
H       -6.09438000      -2.18009000       4.09859000       0.10590000
H       -5.44313000       1.95416000       4.23660000       0.10649000
N       -4.29040000       1.41998000       1.81690000      -0.35221000
N       -4.49281000      -1.39647000       1.94875000      -0.34299000
H       -5.21873000      -1.62109000       1.26353000       0.20590000
H       -3.65191000       1.63601000       2.59426000       0.21252000
C       -3.89656000      -2.63976000       2.47043000      -0.09786000
H       -4.54927000      -3.09747000       3.22564000       0.11177000
H       -2.97824000      -2.36355000       2.99854000       0.10698000
C       -4.52321000       2.63661000       0.99393000      -0.10726000
H       -3.71576000       2.67721000       0.26086000       0.12511000
H       -5.44486000       2.48209000       0.42927000       0.11351000
C       -4.55296000       3.94743000       1.75509000       0.00047000
C       -3.54039000       4.27453000       2.67322000      -0.11066000
C       -5.56926000       4.88024000       1.50241000      -0.10472000
C       -3.55342000       5.50029000       3.33271000      -0.08699000
H       -2.73855000       3.57551000       2.89377000       0.12279000
C       -5.59302000       6.11259000       2.14984000      -0.09044000
H       -6.35466000       4.63679000       0.79144000       0.11431000
C       -4.58079000       6.40398000       3.06229000       0.02674000
H       -2.78259000       5.76314000       4.04664000       0.12672000
H       -6.37491000       6.83898000       1.96590000       0.12598000
C       -3.59116000      -3.70584000       1.43852000       0.00163000
C       -3.97762000      -3.62340000       0.09629000      -0.10333000
C       -2.91946000      -4.85617000       1.88768000      -0.10663000
C       -3.71095000      -4.67532000      -0.77924000      -0.08568000
H       -4.44385000      -2.72799000      -0.30245000       0.12495000
C       -2.63524000      -5.90717000       1.02424000      -0.09333000
H       -2.61448000      -4.92748000       2.92934000       0.11396000
C       -3.04148000      -5.80052000      -0.30686000       0.02213000
H       -4.00021000      -4.61931000      -1.82156000       0.12828000
H       -2.11440000      -6.79615000       1.35783000       0.12709000
O        2.63749000      -5.40828000       2.14959000      -0.27136000
C        4.04901000      -5.56862000       2.08708000      -0.11072000
H        4.54486000      -5.10201000       2.94858000       0.09010000
H        4.22774000      -6.64484000       2.10605000       0.10088000
H        4.46016000      -5.14772000       1.15998000       0.09029000
N       -2.73018000      -6.89704000      -1.23719000       0.25155000
O       -2.15856000      -7.88769000      -0.78088000      -0.19748000
O       -3.05268000      -6.75501000      -2.41622000      -0.19551000
N       -4.59846000       7.69987000       3.75806000       0.25081000
O       -5.52207000       8.47399000       3.50359000      -0.19929000
O       -3.68927000       7.93529000       4.55398000      -0.19748000
