94
R1TS8majorsOMe.xyz  (col5 = NBO charge)
O       -2.12488000       0.19677000      -2.57666000      -0.28997000
N       -1.56011000      -0.89615000      -2.97316000       0.22035000
C       -0.24348000      -1.08161000      -2.72720000      -0.07030000
C        0.51478000      -0.07592000      -2.07615000      -0.05965000
C        1.97788000      -0.19957000      -1.98383000      -0.00159000
O       -1.90866000       1.48596000       0.00146000      -0.31997000
C       -0.69556000       1.27071000       0.11177000       0.41707000
C        0.00239000       0.00034000       0.00562000      -0.23255000
C       -0.72059000      -1.24455000       0.11652000       0.41823000
O       -1.92970000      -1.42466000      -0.08425000      -0.32720000
Ni      -3.36183000       0.07613000      -0.68967000       1.34272000
O        0.16378000       2.29055000       0.27660000      -0.27483000
C       -0.42181000       3.61977000       0.32031000      -0.02636000
C       -0.52333000      -3.60291000       0.27791000      -0.02302000
H       -1.24438000      -3.68577000       1.09748000       0.09911000
H        0.14176000       0.93246000      -2.22391000       0.12291000
H        0.13921000      -2.04425000      -3.02963000       0.11595000
H       -1.09729000       3.67695000       1.17732000       0.10035000
H       -1.02555000       3.77458000      -0.57733000       0.10019000
O        0.09230000      -2.29160000       0.33042000      -0.27395000
H       -1.07563000      -3.69781000      -0.66270000       0.09720000
O       -2.23817000      -1.77124000      -3.58052000      -0.26134000
C        2.76767000       0.95845000      -1.95790000      -0.09454000
C        2.62723000      -1.44558000      -1.87056000      -0.10148000
C        4.15670000       0.89519000      -1.85741000      -0.15079000
H        2.28400000       1.93047000      -2.00717000       0.10995000
C        4.00597000      -1.52433000      -1.76700000      -0.12479000
H        2.04105000      -2.35809000      -1.83526000       0.11018000
C        4.78523000      -0.35433000      -1.76575000       0.17337000
H        4.73164000       1.81363000      -1.84846000       0.11490000
H        4.51228000      -2.48006000      -1.67773000       0.11629000
H        1.00825000      -0.00635000       0.40279000       0.13361000
Br      -4.80429000       0.11731000       1.35922000      -0.29348000
C       -7.25123000       0.45577000      -4.43132000      -0.19427000
C       -7.63220000      -0.91573000      -3.86436000      -0.19349000
C       -6.40509000      -1.62398000      -3.27727000      -0.20365000
C       -5.69307000      -0.77399000      -2.20822000      -0.01121000
C       -5.31638000       0.61395000      -2.77833000      -0.01103000
C       -6.56308000       1.30773000      -3.35710000      -0.20011000
H       -6.69246000      -2.58634000      -2.84611000       0.11230000
H       -8.38908000      -0.78463000      -3.07712000       0.09860000
H       -8.08926000      -1.54261000      -4.63955000       0.10541000
H       -6.56774000       0.32294000      -5.28241000       0.09955000
H       -8.13580000       0.97960000      -4.81372000       0.10468000
H       -6.35853000      -0.61317000      -1.34989000       0.10820000
H       -4.56268000       0.46472000      -3.56069000       0.11203000
H       -7.26815000       1.49321000      -2.53244000       0.10142000
H       -6.29577000       2.28733000      -3.76838000       0.10592000
H       -5.68450000      -1.84439000      -4.07827000       0.10392000
N       -4.47798000      -1.42409000      -1.66493000      -0.34455000
N       -4.65209000       1.43387000      -1.72591000      -0.33045000
H       -5.35425000       1.70322000      -1.03415000       0.20251000
H       -3.85962000      -1.67387000      -2.44655000       0.21205000
C       -3.95878000       2.63108000      -2.25460000      -0.09821000
H       -4.49570000       3.03167000      -3.12475000       0.10326000
H       -2.98451000       2.28957000      -2.61660000       0.11754000
C       -4.70349000      -2.61181000      -0.79683000      -0.10463000
H       -3.83459000      -2.67525000      -0.13858000       0.11918000
H       -5.55553000      -2.38741000      -0.15234000       0.11205000
C       -4.88076000      -3.93393000      -1.51667000      -0.02126000
C       -3.90518000      -4.39286000      -2.41496000      -0.11186000
C       -5.99468000      -4.74295000      -1.26204000      -0.10767000
C       -4.05368000      -5.62458000      -3.05319000      -0.10276000
H       -3.03608000      -3.77637000      -2.63118000       0.11429000
C       -6.14160000      -5.97973000      -1.89491000      -0.10479000
H       -6.75434000      -4.39853000      -0.56352000       0.10893000
C       -5.17177000      -6.42284000      -2.79574000      -0.11164000
H       -3.29368000      -5.96224000      -3.75337000       0.10809000
H       -7.01454000      -6.59309000      -1.68654000       0.10841000
H       -5.28532000      -7.38232000      -3.29348000       0.10808000
C       -3.77279000       3.75677000      -1.25649000      -0.02040000
C       -4.00106000       3.62321000       0.11730000      -0.10900000
C       -3.31404000       4.98873000      -1.74823000      -0.11022000
C       -3.77943000       4.70419000       0.97569000      -0.10240000
H       -4.31147000       2.67354000       0.54175000       0.12113000
C       -3.07687000       6.06169000      -0.88969000      -0.10814000
H       -3.13685000       5.10539000      -2.81618000       0.10731000
C       -3.31299000       5.92281000       0.48163000      -0.11470000
H       -3.96252000       4.57877000       2.03965000       0.11051000
H       -2.71907000       7.00648000      -1.29107000       0.10814000
H       -3.13833000       6.75834000       1.15453000       0.10823000
C        0.59497000      -4.62064000       0.39309000      -0.30193000
H        0.17882000      -5.63330000       0.36670000       0.10971000
H        1.30310000      -4.51581000      -0.43593000       0.10274000
H        1.14285000      -4.49292000       1.33191000       0.10671000
C        0.72029000       4.61042000       0.41986000      -0.30181000
H        1.38312000       4.53259000      -0.44899000       0.10239000
H        0.31330000       5.62655000       0.45496000       0.10962000
H        1.31374000       4.43920000       1.32380000       0.10545000
O        6.12800000      -0.54332000      -1.66404000      -0.27250000
C        6.97307000       0.59869000      -1.64482000      -0.11074000
H        6.75513000       1.24642000      -0.78509000       0.08990000
H        7.99128000       0.21537000      -1.55915000       0.10035000
H        6.88148000       1.18303000      -2.57023000       0.08979000
