84
R1TS1major.xyz  (col5 = NBO charge)
O       -2.21102000       0.19341000      -2.57642000      -0.28622000
N       -1.65127000      -0.89875000      -2.97394000       0.22372000
C       -0.32709000      -1.08454000      -2.74473000      -0.07163000
C        0.43935000      -0.07792000      -2.11712000      -0.04436000
C        1.90897000      -0.19571000      -2.05493000      -0.04384000
O       -1.90723000       1.48949000       0.00242000      -0.31995000
C       -0.69523000       1.27012000       0.11346000       0.41502000
C        0.00000000      -0.00000000       0.00000000      -0.23383000
C       -0.72184000      -1.24229000       0.12352000       0.41733000
O       -1.92782000      -1.42952000      -0.08829000      -0.32738000
Ni      -3.37999000       0.06970000      -0.63831000       1.34100000
O        0.16581000       2.28748000       0.28889000      -0.26846000
C       -0.42093000       3.60470000       0.35763000      -0.11371000
C       -0.54741000      -3.57993000       0.37010000      -0.11258000
H       -1.28914000      -3.64019000       1.17094000       0.09961000
H        0.05552000       0.92840000      -2.24817000       0.12338000
H        0.04858000      -2.05090000      -3.04432000       0.11710000
H       -1.11284000       3.67285000       1.19900000       0.10174000
H       -0.96996000       3.83488000      -0.55840000       0.09861000
O        0.08813000      -2.28744000       0.36841000      -0.26780000
H        0.42098000       4.28462000       0.48950000       0.09764000
H        0.25775000      -4.29556000       0.53782000       0.09867000
H       -1.04087000      -3.76705000      -0.58793000       0.09723000
O       -2.33270000      -1.77734000      -3.56718000      -0.25498000
C        2.69051000       0.97045000      -2.10425000      -0.08987000
C        2.55349000      -1.43724000      -1.91501000      -0.09355000
C        4.08109000       0.89752000      -2.04722000      -0.10433000
H        2.19818000       1.93623000      -2.18167000       0.11093000
C        3.94302000      -1.50825000      -1.85413000      -0.10342000
H        1.96259000      -2.34281000      -1.82182000       0.11066000
C        4.71206000      -0.34277000      -1.92590000      -0.09956000
H        4.67173000       1.80820000      -2.09405000       0.11112000
H        4.42827000      -2.47414000      -1.74414000       0.11083000
H        5.79592000      -0.40132000      -1.87886000       0.11054000
H        1.01406000      -0.00650000       0.37603000       0.13399000
Br      -4.72813000       0.07456000       1.46989000      -0.29126000
C       -7.38756000       0.57591000      -4.23257000      -0.19431000
C       -7.76258000      -0.80682000      -3.68987000      -0.19347000
C       -6.52477000      -1.54346000      -3.16250000      -0.20372000
C       -5.76869000      -0.73027000      -2.09469000      -0.01152000
C       -5.39758000       0.66840000      -2.64260000      -0.01060000
C       -6.65481000       1.39093000      -3.15947000      -0.20012000
H       -6.80985000      -2.51380000      -2.74926000       0.11284000
H       -8.49196000      -0.69028000      -2.87490000       0.09868000
H       -8.25109000      -1.40869000      -4.46566000       0.10555000
H       -6.73496000       0.46048000      -5.11002000       0.09951000
H       -8.27938000       1.11802000      -4.56984000       0.10486000
H       -6.40392000      -0.58625000      -1.21084000       0.10815000
H       -4.67330000       0.53189000      -3.45452000       0.11180000
H       -7.32963000       1.56072000      -2.30664000       0.10158000
H       -6.38974000       2.37897000      -3.55175000       0.10602000
H       -5.83304000      -1.74934000      -3.99237000       0.10369000
N       -4.54105000      -1.40361000      -1.60826000      -0.34318000
N       -4.68919000       1.45421000      -1.59377000      -0.33052000
H       -5.36554000       1.71433000      -0.87339000       0.20291000
H       -3.95421000      -1.64569000      -2.41564000       0.21115000
C       -3.99737000       2.65917000      -2.11064000      -0.09741000
H       -4.52931000       3.05932000      -2.98352000       0.10338000
H       -3.01693000       2.32784000      -2.46535000       0.11694000
C       -4.74110000      -2.60602000      -0.75424000      -0.10493000
H       -3.82575000      -2.71166000      -0.16784000       0.11838000
H       -5.53245000      -2.36903000      -0.04064000       0.11279000
C       -5.01788000      -3.90297000      -1.48794000      -0.02191000
C       -4.11763000      -4.38091000      -2.45224000      -0.11138000
C       -6.15177000      -4.66729000      -1.18757000      -0.10765000
C       -4.36032000      -5.58624000      -3.11151000      -0.10271000
H       -3.23162000      -3.80071000      -2.69875000       0.11398000
C       -6.39295000      -5.87792000      -1.84175000      -0.10476000
H       -6.85291000      -4.30771000      -0.43744000       0.10914000
C       -5.49869000      -6.33896000      -2.80935000      -0.11143000
H       -3.65803000      -5.93960000      -3.86231000       0.10829000
H       -7.27994000      -6.45689000      -1.59759000       0.10859000
H       -5.68572000      -7.27801000      -3.32355000       0.10825000
C       -3.83096000       3.77805000      -1.10174000      -0.02086000
C       -4.01306000       3.61138000       0.27563000      -0.11006000
C       -3.43905000       5.03633000      -1.58372000      -0.11004000
C       -3.81443000       4.68634000       1.14693000      -0.10290000
H       -4.27273000       2.64257000       0.69069000       0.12113000
C       -3.22394000       6.10388000      -0.71251000      -0.10747000
H       -3.29947000       5.17955000      -2.65400000       0.10733000
C       -3.41528000       5.93219000       0.66173000      -0.11371000
H       -3.96363000       4.53599000       2.21298000       0.11053000
H       -2.91865000       7.06992000      -1.10646000       0.10832000
H       -3.25783000       6.76328000       1.34420000       0.10843000
