107
R1TS8minorsCNcNMe2.xyz  (col5 = NBO charge)
O       -2.41269000       1.31501000       3.87007000      -0.26631000
N       -1.37267000       1.20022000       3.15445000       0.23139000
C       -1.01057000      -0.06538000       2.73229000      -0.11156000
C        0.21289000      -0.26769000       2.05570000      -0.06644000
C        0.84821000      -1.60991000       2.07206000      -0.01881000
O       -1.91732000      -1.43621000      -0.02608000      -0.33393000
C       -0.73569000      -1.20479000      -0.33560000       0.41697000
C        0.00217000       0.00011000       0.00087000      -0.21692000
C       -0.71320000       1.26025000      -0.02729000       0.41859000
O       -1.93709000       1.37744000       0.15413000      -0.33875000
Ni      -3.30615000      -0.08125000       0.72822000       1.35993000
O        0.01871000      -2.13464000      -0.92187000      -0.26750000
C       -0.60887000      -3.42480000      -1.15539000      -0.03047000
C       -0.56263000       3.62140000      -0.02306000      -0.02492000
H       -1.29236000       3.76057000      -0.82742000       0.09699000
H        0.90244000       0.56960000       2.12489000       0.13124000
H       -1.63855000      -0.84877000       3.12103000       0.11484000
H       -1.41338000      -3.28902000      -1.88329000       0.10019000
H       -1.06110000      -3.76739000      -0.22504000       0.10370000
O        0.06893000       2.32201000      -0.19691000      -0.26705000
H       -1.09160000       3.61595000       0.93229000       0.10736000
O       -0.68943000       2.19914000       2.82713000      -0.24769000
C        2.24349000      -1.71665000       1.94989000      -0.09166000
C        0.09064000      -2.79096000       2.14876000      -0.10316000
C        2.86783000      -2.95755000       1.89847000      -0.07197000
H        2.84348000      -0.81298000       1.88393000       0.11528000
C        0.69982000      -4.03676000       2.09088000      -0.07405000
H       -0.98995000      -2.74649000       2.19080000       0.11803000
C        2.09568000      -4.13043000       1.96159000      -0.09763000
H        3.94619000      -3.02746000       1.79955000       0.11873000
H        0.09252000      -4.93514000       2.11340000       0.11930000
H        1.02825000       0.03164000      -0.34713000       0.13107000
Br      -4.91178000      -0.22594000      -1.15941000      -0.28140000
C       -7.13634000      -0.25669000       4.58245000      -0.19394000
C       -7.49548000       1.09014000       3.94703000      -0.19336000
C       -6.25501000       1.75278000       3.33598000      -0.20388000
C       -5.55775000       0.83599000       2.31510000      -0.01158000
C       -5.19425000      -0.51985000       2.95532000      -0.01318000
C       -6.45065000      -1.17345000       3.55994000      -0.20007000
H       -6.52481000       2.69582000       2.85400000       0.11311000
H       -8.24905000       0.93133000       3.16175000       0.09878000
H       -7.94893000       1.75864000       4.68862000       0.10587000
H       -6.45779000      -0.09091000       5.43151000       0.10008000
H       -8.02982000      -0.75111000       4.98250000       0.10513000
H       -6.22807000       0.63957000       1.46845000       0.11068000
H       -4.44772000      -0.33450000       3.73846000       0.11180000
H       -7.15101000      -1.39773000       2.74103000       0.10254000
H       -6.19988000      -2.12893000       4.03230000       0.10597000
H       -5.53493000       2.00397000       4.12756000       0.10561000
N       -4.33192000       1.43049000       1.73509000      -0.35091000
N       -4.52120000      -1.38548000       1.93708000      -0.34223000
H       -5.22549000      -1.65163000       1.24443000       0.20529000
H       -3.70801000       1.66860000       2.51640000       0.21169000
C       -3.92035000      -2.60304000       2.52226000      -0.08909000
H       -4.59377000      -3.03318000       3.27574000       0.10571000
H       -3.02877000      -2.28314000       3.07349000       0.09942000
C       -4.55289000       2.64168000       0.88814000      -0.09907000
H       -3.75277000       2.64613000       0.14730000       0.11846000
H       -5.48220000       2.48617000       0.33517000       0.10950000
C       -4.56770000       3.95939000       1.63326000      -0.05353000
C       -3.54627000       4.31251000       2.52683000      -0.10867000
C       -5.58246000       4.89608000       1.41558000      -0.09472000
C       -3.54393000       5.54343000       3.17548000      -0.11552000
H       -2.74088000       3.61871000       2.75435000       0.11453000
C       -5.59212000       6.13524000       2.05212000      -0.13843000
H       -6.39558000       4.65316000       0.73380000       0.10677000
C       -4.56099000       6.49857000       2.94643000       0.09345000
H       -2.73688000       5.75271000       3.86718000       0.11052000
H       -6.41228000       6.81347000       1.84936000       0.10950000
C       -3.56270000      -3.69371000       1.53361000      -0.05006000
C       -3.94575000      -3.70236000       0.18962000      -0.09161000
C       -2.83680000      -4.79546000       2.00419000      -0.09923000
C       -3.62103000      -4.76711000      -0.64837000      -0.13462000
H       -4.45660000      -2.85224000      -0.25259000       0.11739000
C       -2.48444000      -5.85669000       1.17617000      -0.14038000
H       -2.52664000      -4.82676000       3.04802000       0.10655000
C       -2.87285000      -5.87201000      -0.18498000       0.09724000
H       -3.92735000      -4.70423000      -1.68537000       0.11244000
H       -1.91363000      -6.67581000       1.59727000       0.11120000
C        0.47007000      -4.37007000      -1.64146000      -0.30279000
H        1.25537000      -4.47894000      -0.88702000       0.10629000
H        0.02935000      -5.35599000      -1.82525000       0.10863000
H        0.92495000      -4.01208000      -2.57046000       0.10672000
C        0.54206000       4.65762000      -0.05847000      -0.30232000
H        0.10946000       5.65628000       0.06436000       0.10986000
H        1.25251000       4.48532000       0.75610000       0.10609000
H        1.08375000       4.62719000      -1.00953000       0.10431000
C        2.71590000      -5.41854000       1.86701000       0.16176000
N        3.20452000      -6.47076000       1.77816000      -0.18085000
N       -2.51767000      -6.92088000      -1.02462000      -0.25522000
C       -2.76833000      -6.79900000      -2.45099000      -0.18167000
C       -1.50896000      -7.86899000      -0.57834000      -0.18220000
H       -2.45346000      -7.71716000      -2.95075000       0.10407000
H       -3.83796000      -6.66522000      -2.64944000       0.10122000
H       -2.22992000      -5.95336000      -2.91016000       0.09181000
H       -0.55636000      -7.38191000      -0.31372000       0.09345000
H       -1.85493000      -8.43282000       0.29662000       0.09942000
H       -1.31424000      -8.58917000      -1.37512000       0.10467000
N       -4.54184000       7.74570000       3.57000000      -0.25636000
C       -5.73398000       8.57386000       3.51107000      -0.18194000
C       -3.62966000       7.95691000       4.68186000      -0.18226000
H       -5.54974000       9.50783000       4.04649000       0.10283000
H       -5.97782000       8.83394000       2.47425000       0.09916000
H       -6.61823000       8.08757000       3.95628000       0.09206000
H       -3.80176000       7.25826000       5.51732000       0.09288000
H       -2.58787000       7.84690000       4.35908000       0.09943000
H       -3.74931000       8.97628000       5.05540000       0.10247000
