88
R1TS1minorsOMe.xyz  (col5 = NBO charge)
O       -2.37865000       1.28692000       3.91627000      -0.27067000
N       -1.36294000       1.17743000       3.16118000       0.23046000
C       -1.01117000      -0.08320000       2.72251000      -0.11400000
C        0.22268000      -0.28558000       2.05406000      -0.05503000
C        0.87258000      -1.61487000       2.10350000      -0.05844000
O       -1.91590000      -1.44423000      -0.02649000      -0.33620000
C       -0.73537000      -1.20349000      -0.33627000       0.41742000
C       -0.00007000      -0.00023000       0.00220000      -0.22163000
C       -0.71340000       1.25822000      -0.02876000       0.41918000
O       -1.93640000       1.38653000       0.15535000      -0.33943000
Ni      -3.27602000      -0.08223000       0.75958000       1.35748000
O        0.01499000      -2.12598000      -0.94067000      -0.26121000
C       -0.62283000      -3.39257000      -1.20630000      -0.11383000
C       -0.56331000       3.60468000      -0.04783000      -0.11324000
H       -1.34859000       3.73939000      -0.79665000       0.09661000
H        0.90170000       0.56059000       2.12209000       0.12953000
H       -1.60339000      -0.87171000       3.15513000       0.11468000
H       -1.49975000      -3.24838000      -1.83998000       0.10092000
H       -0.92916000      -3.86861000      -0.27423000       0.10073000
O        0.07169000       2.31927000      -0.21263000      -0.26217000
H        0.13423000      -3.99066000      -1.71335000       0.09894000
H        0.23271000       4.33542000      -0.19059000       0.09824000
H       -0.98764000       3.67708000       0.95585000       0.10603000
O       -0.70066000       2.18330000       2.81102000      -0.24955000
C        2.26933000      -1.70706000       2.07594000      -0.07732000
C        0.13726000      -2.81533000       2.14816000      -0.09358000
C        2.92493000      -2.93852000       2.10949000      -0.14848000
H        2.86232000      -0.79668000       2.03057000       0.11096000
C        0.77138000      -4.04641000       2.17302000      -0.12440000
H       -0.94508000      -2.79134000       2.11465000       0.11225000
C        2.17379000      -4.12034000       2.15743000       0.17142000
H        4.00819000      -2.96328000       2.09453000       0.11497000
H        0.19868000      -4.96805000       2.18819000       0.11541000
H        1.02603000       0.03103000      -0.34497000       0.13138000
Br      -4.92422000      -0.18247000      -1.10590000      -0.28268000
C       -7.00877000      -0.39349000       4.70011000      -0.19404000
C       -7.40460000       0.96187000       4.10631000      -0.19327000
C       -6.19160000       1.65614000       3.47541000      -0.20419000
C       -5.50945000       0.77478000       2.41366000      -0.01144000
C       -5.11405000      -0.59342000       3.00939000      -0.01337000
C       -6.34333000      -1.27674000       3.63588000      -0.20008000
H       -6.49120000       2.60510000       3.02342000       0.11255000
H       -8.17857000       0.81000000       3.33973000       0.09881000
H       -7.84506000       1.60719000       4.87565000       0.10622000
H       -6.30671000      -0.23757000       5.53169000       0.10040000
H       -7.88318000      -0.90886000       5.11551000       0.10528000
H       -6.19760000       0.59243000       1.57812000       0.11078000
H       -4.34477000      -0.41897000       3.77264000       0.11260000
H       -7.06568000      -1.49098000       2.83350000       0.10257000
H       -6.06622000      -2.24002000       4.07724000       0.10568000
H       -5.45309000       1.90051000       4.25183000       0.10617000
N       -4.30277000       1.39822000       1.82226000      -0.35220000
N       -4.46837000      -1.42494000       1.94689000      -0.34230000
H       -5.19127000      -1.67131000       1.26651000       0.20557000
H       -3.66647000       1.62445000       2.59807000       0.21247000
C       -3.83736000      -2.65346000       2.46914000      -0.09366000
H       -4.46222000      -3.10240000       3.25243000       0.10790000
H       -2.90956000      -2.35225000       2.96554000       0.10320000
C       -4.55022000       2.61873000       1.00316000      -0.10286000
H       -3.74144000       2.66691000       0.27280000       0.12087000
H       -5.46826000       2.45074000       0.43596000       0.11106000
C       -4.60391000       3.92385000       1.77365000      -0.02442000
C       -3.58428000       4.27445000       2.67250000      -0.11341000
C       -5.65187000       4.82685000       1.55583000      -0.10854000
C       -3.62808000       5.49744000       3.34362000      -0.10101000
H       -2.75884000       3.59497000       2.86912000       0.11722000
C       -5.69142000       6.05368000       2.22232000      -0.10511000
H       -6.44552000       4.56450000       0.85914000       0.10821000
C       -4.67892000       6.39139000       3.12188000      -0.11148000
H       -2.83479000       5.75109000       4.04202000       0.10913000
H       -6.51456000       6.74041000       2.04192000       0.10820000
H       -4.70829000       7.34284000       3.64649000       0.10800000
C       -3.54882000      -3.73224000       1.44260000      -0.02056000
C       -3.97100000      -3.67499000       0.11130000      -0.10695000
C       -2.85815000      -4.87119000       1.88607000      -0.11163000
C       -3.72677000      -4.74949000      -0.74959000      -0.10088000
H       -4.44986000      -2.78614000      -0.28775000       0.11913000
C       -2.60034000      -5.93531000       1.02285000      -0.10681000
H       -2.52278000      -4.92443000       2.92058000       0.10804000
C       -3.04374000      -5.88033000      -0.30246000      -0.11272000
H       -4.06446000      -4.68649000      -1.78060000       0.11087000
H       -2.06302000      -6.80767000       1.38562000       0.10952000
H       -2.85344000      -6.71026000      -0.97760000       0.10935000
O        2.69833000      -5.37613000       2.18508000      -0.27258000
C        4.11152000      -5.51805000       2.16215000      -0.11059000
H        4.57859000      -5.04317000       3.03548000       0.08982000
H        4.30493000      -6.59188000       2.18904000       0.10004000
H        4.54448000      -5.09386000       1.24614000       0.08966000
