89
R1TS1minorsCNcNO2.xyz  (col5 = NBO charge)
O       -2.45870000       1.30134000       3.87101000      -0.26603000
N       -1.41627000       1.19645000       3.15578000       0.23221000
C       -1.03789000      -0.06930000       2.74324000      -0.10952000
C        0.19485000      -0.26414000       2.08718000      -0.06134000
C        0.84410000      -1.59665000       2.12394000      -0.02300000
O       -1.91664000      -1.44717000      -0.02723000      -0.33905000
C       -0.73388000      -1.20478000      -0.33449000       0.41590000
C       -0.00219000       0.00022000      -0.00040000      -0.21992000
C       -0.71192000       1.25965000      -0.02681000       0.41863000
O       -1.93651000       1.38889000       0.15496000      -0.34143000
Ni      -3.29805000      -0.06948000       0.70708000       1.35627000
O        0.02463000      -2.12452000      -0.93051000      -0.25970000
C       -0.59977000      -3.39061000      -1.22486000      -0.11371000
C       -0.55128000       3.60816000      -0.05565000      -0.11305000
H       -1.33040000       3.73887000      -0.81143000       0.09714000
H        0.87255000       0.58315000       2.14531000       0.13208000
H       -1.64926000      -0.85708000       3.14990000       0.11528000
H       -1.46300000      -3.24320000      -1.87660000       0.10194000
H       -0.92015000      -3.87738000      -0.30251000       0.09627000
O        0.07636000       2.31654000      -0.20284000      -0.25990000
H        0.16921000      -3.97978000      -1.72330000       0.10284000
H        0.25011000       4.33184000      -0.20123000       0.10035000
H       -0.97995000       3.69364000       0.94515000       0.10464000
O       -0.75155000       2.20165000       2.81827000      -0.24263000
C        2.24540000      -1.68016000       2.09554000      -0.08963000
C        0.10145000      -2.79005000       2.16268000      -0.10345000
C        2.89130000      -2.91110000       2.11926000      -0.07017000
H        2.83424000      -0.76778000       2.05681000       0.11625000
C        0.73365000      -4.02571000       2.17873000      -0.07431000
H       -0.98051000      -2.75797000       2.13154000       0.11469000
C        2.13727000      -4.09587000       2.16089000      -0.09221000
H        3.97490000      -2.96390000       2.10312000       0.12004000
H        0.14622000      -4.93805000       2.19214000       0.11767000
H        1.02709000       0.03071000      -0.33785000       0.13290000
Br      -4.89362000      -0.16910000      -1.18664000      -0.27543000
C       -7.12138000      -0.30885000       4.57363000      -0.19415000
C       -7.49480000       1.04196000       3.95554000      -0.19348000
C       -6.26262000       1.71996000       3.34419000      -0.20384000
C       -5.56427000       0.82079000       2.30898000      -0.01182000
C       -5.19314000      -0.54360000       2.92710000      -0.01321000
C       -6.44006000      -1.21087000       3.53504000      -0.20041000
H       -6.54726000       2.66483000       2.87301000       0.11116000
H       -8.25275000       0.88765000       3.17397000       0.09970000
H       -7.94626000       1.69924000       4.70758000       0.10768000
H       -6.43724000      -0.14870000       5.41901000       0.10099000
H       -8.00841000      -0.81274000       4.97484000       0.10689000
H       -6.23402000       0.63531000       1.45944000       0.11161000
H       -4.43718000      -0.36975000       3.70358000       0.11304000
H       -7.14669000      -1.43141000       2.72062000       0.10328000
H       -6.17936000      -2.16930000       3.99654000       0.10609000
H       -5.54047000       1.96861000       4.13464000       0.10628000
N       -4.33755000       1.42707000       1.73887000      -0.35099000
N       -4.53345000      -1.38852000       1.88134000      -0.34278000
H       -5.24689000      -1.62805000       1.18820000       0.20614000
H       -3.71357000       1.64858000       2.52539000       0.21192000
C       -3.93233000      -2.62099000       2.42421000      -0.09737000
H       -4.58835000      -3.07258000       3.18001000       0.11236000
H       -3.02089000      -2.33062000       2.95700000       0.10612000
C       -4.55597000       2.64044000       0.90599000      -0.10685000
H       -3.73561000       2.67808000       0.18718000       0.12463000
H       -5.46728000       2.48251000       0.32581000       0.11385000
C       -4.60049000       3.95367000       1.66216000      -0.00034000
C       -3.60468000       4.28456000       2.59688000      -0.11068000
C       -5.61356000       4.88408000       1.38932000      -0.10431000
C       -3.63066000       5.51187000       3.25318000      -0.08697000
H       -2.80557000       3.58772000       2.83342000       0.12174000
C       -5.65008000       6.11808000       2.03326000      -0.09013000
H       -6.38617000       4.63795000       0.66541000       0.11453000
C       -4.65440000       6.41307000       2.96238000       0.02722000
H       -2.87294000       5.77785000       3.97987000       0.12690000
H       -6.42958000       6.84297000       1.83390000       0.12630000
C       -3.61107000      -3.69736000       1.40767000       0.00082000
C       -3.98181000      -3.62933000       0.06029000      -0.10323000
C       -2.94392000      -4.84258000       1.87679000      -0.10784000
C       -3.70588000      -4.69089000      -0.80079000      -0.08551000
H       -4.44396000      -2.73872000      -0.35358000       0.12465000
C       -2.65133000      -5.90375000       1.02780000      -0.09410000
H       -2.65583000      -4.90528000       2.92398000       0.11383000
C       -3.04316000      -5.81122000      -0.30861000       0.02277000
H       -3.98435000      -4.64708000      -1.84666000       0.12873000
H       -2.13859000      -6.79166000       1.37710000       0.12763000
C        2.79292000      -5.36978000       2.17922000       0.15952000
N        3.32205000      -6.40547000       2.19495000      -0.17511000
N       -2.72678000      -6.92066000      -1.22365000       0.25147000
O       -2.16932000      -7.90928000      -0.74799000      -0.19575000
O       -3.03281000      -6.78729000      -2.40779000      -0.19474000
N       -4.68591000       7.71111000       3.65491000       0.25084000
O       -5.60609000       8.48261000       3.38228000      -0.19862000
O       -3.79075000       7.94890000       4.46557000      -0.19709000
