94
R1TS8minorcNO2.xyz  (col5 = NBO charge)
O       -2.42261000       1.27284000       3.89701000      -0.27051000
N       -1.38716000       1.16892000       3.16738000       0.23095000
C       -1.01898000      -0.09153000       2.73946000      -0.10991000
C        0.21283000      -0.28744000       2.07681000      -0.05466000
C        0.86772000      -1.61738000       2.10601000      -0.04165000
O       -1.91809000      -1.44373000      -0.02865000      -0.34158000
C       -0.73080000      -1.20849000      -0.33079000       0.41799000
C       -0.00311000       0.00061000      -0.00545000      -0.22120000
C       -0.71120000       1.26040000      -0.02344000       0.41802000
O       -1.93794000       1.38801000       0.15436000      -0.34298000
Ni      -3.28551000      -0.07178000       0.71718000       1.35952000
O        0.03366000      -2.13853000      -0.89860000      -0.26501000
C       -0.55982000      -3.44824000      -1.10531000      -0.02925000
C       -0.54157000       3.62297000      -0.00357000      -0.02421000
H       -1.26914000       3.77224000      -0.80840000       0.09640000
H        0.88787000       0.56213000       2.13366000       0.13079000
H       -1.62839000      -0.88045000       3.14719000       0.11464000
H       -1.32133000      -3.35907000      -1.88541000       0.09883000
H       -1.05284000      -3.74924000      -0.18147000       0.09957000
O        0.07670000       2.31925000      -0.18146000      -0.26617000
H       -1.07003000       3.61857000       0.95264000       0.10511000
O       -0.72470000       2.17832000       2.83292000      -0.24561000
C        2.26603000      -1.69517000       2.01186000      -0.08929000
C        0.13590000      -2.81309000       2.20149000      -0.10338000
C        2.91609000      -2.92829000       2.02819000      -0.10128000
H        2.84528000      -0.77899000       1.92659000       0.11128000
C        0.78332000      -4.04589000       2.21182000      -0.10346000
H       -0.94701000      -2.78486000       2.22324000       0.10916000
C        2.17698000      -4.10957000       2.12916000      -0.10025000
H        3.99953000      -2.96719000       1.95990000       0.11206000
H        0.19606000      -4.95814000       2.26948000       0.10925000
H        2.68160000      -5.07151000       2.13815000       0.11163000
H        1.02716000       0.03108000      -0.33924000       0.13202000
Br      -4.92444000      -0.13181000      -1.15175000      -0.27923000
C       -7.03205000      -0.33301000       4.66429000      -0.19410000
C       -7.41395000       1.02530000       4.06837000      -0.19341000
C       -6.19304000       1.70237000       3.43429000      -0.20392000
C       -5.52484000       0.81104000       2.37257000      -0.01146000
C       -5.14869000      -0.56447000       2.96446000      -0.01345000
C       -6.38310000      -1.22923000       3.60031000      -0.20040000
H       -6.48295000       2.65403000       2.98000000       0.11086000
H       -8.19133000       0.88194000       3.30388000       0.09942000
H       -7.84395000       1.67743000       4.83741000       0.10738000
H       -6.32491000      -0.18368000       5.49256000       0.10101000
H       -7.91097000      -0.83591000       5.08449000       0.10644000
H       -6.21523000       0.64116000       1.53619000       0.11129000
H       -4.36966000      -0.40544000       3.72103000       0.11327000
H       -7.11251000      -1.43976000       2.80339000       0.10293000
H       -6.11516000      -2.19249000       4.04742000       0.10589000
H       -5.45042000       1.93794000       4.20951000       0.10658000
N       -4.30726000       1.41721000       1.78440000      -0.35256000
N       -4.52631000      -1.39974000       1.88924000      -0.34314000
H       -5.25611000      -1.60644000       1.20275000       0.20562000
H       -3.66803000       1.62673000       2.56247000       0.21239000
C       -3.93969000      -2.65673000       2.38878000      -0.09773000
H       -4.60347000      -3.13276000       3.12319000       0.11183000
H       -3.02788000      -2.39385000       2.93500000       0.10685000
C       -4.53441000       2.63912000       0.96782000      -0.10719000
H       -3.72515000       2.68077000       0.23650000       0.12525000
H       -5.45521000       2.49065000       0.40024000       0.11368000
C       -4.56104000       3.94699000       1.73418000       0.00046000
C       -3.55345000       4.26553000       2.66084000      -0.11089000
C       -5.56830000       4.88779000       1.47486000      -0.10461000
C       -3.56119000       5.49150000       3.32002000      -0.08697000
H       -2.75908000       3.56056000       2.88877000       0.12269000
C       -5.58705000       6.12013000       2.12250000      -0.09243000
H       -6.35009000       4.65112000       0.75767000       0.11436000
C       -4.57891000       6.40364000       3.04190000       0.02675000
H       -2.79347000       5.74790000       4.03963000       0.12674000
H       -6.36185000       6.85268000       1.93302000       0.12808000
C       -3.61884000      -3.69452000       1.33267000       0.00358000
C       -4.03748000      -3.60002000       0.00089000      -0.10254000
C       -2.89266000      -4.82637000       1.74249000      -0.10713000
C       -3.74256000      -4.61747000      -0.90515000      -0.08427000
H       -4.54231000      -2.71411000      -0.37079000       0.12455000
C       -2.56373000      -5.83404000       0.84372000      -0.09365000
H       -2.56963000      -4.91140000       2.77766000       0.11368000
C       -2.99850000      -5.71270000      -0.47694000       0.02259000
H       -4.05213000      -4.54829000      -1.94089000       0.12823000
H       -1.97986000      -6.69664000       1.14036000       0.12632000
C        0.55575000      -4.40168000      -1.48068000      -0.30407000
H        1.31394000      -4.42096000      -0.69196000       0.10855000
H        0.14919000      -5.41284000      -1.59489000       0.10955000
H        1.03171000      -4.10687000      -2.42094000       0.10711000
C        0.57321000       4.64870000      -0.03558000      -0.30248000
H        0.15201000       5.65197000       0.08901000       0.10956000
H        1.28184000       4.46739000       0.77842000       0.10689000
H        1.11410000       4.61426000      -0.98672000       0.10525000
N       -2.60756000      -6.73831000      -1.45380000       0.25089000
O       -1.73697000      -7.54362000      -1.11437000      -0.19921000
O       -3.15585000      -6.72165000      -2.55389000      -0.19257000
N       -4.59038000       7.70014000       3.73674000       0.25078000
O       -5.50673000       8.48099000       3.47692000      -0.19924000
O       -3.68338000       7.92917000       4.53701000      -0.19745000
