101
R1TS1majorsCNcNMe2.xyz  (col5 = NBO charge)
O       -2.26539000       0.17580000      -2.57892000      -0.28314000
N       -1.70429000      -0.91382000      -2.97107000       0.22687000
C       -0.37264000      -1.09109000      -2.74861000      -0.09229000
C        0.38527000      -0.07743000      -2.13023000      -0.00080000
C        1.85731000      -0.17909000      -2.07921000      -0.04068000
O       -1.90659000       1.48624000       0.00214000      -0.31754000
C       -0.69534000       1.27139000       0.11354000       0.41336000
C        0.00003000       0.00023000       0.00047000      -0.23495000
C       -0.72245000      -1.24265000       0.12262000       0.41615000
O       -1.92777000      -1.42741000      -0.08766000      -0.32532000
Ni      -3.39900000       0.07046000      -0.60622000       1.33833000
O        0.16578000       2.28976000       0.28220000      -0.26944000
C       -0.42465000       3.60696000       0.35219000      -0.11478000
C       -0.54982000      -3.58095000       0.36366000      -0.11281000
H       -1.28502000      -3.63871000       1.17050000       0.10029000
H       -0.01102000       0.92446000      -2.25663000       0.12026000
H        0.00383000      -2.05977000      -3.03973000       0.11681000
H       -1.10992000       3.67480000       1.19890000       0.10254000
H       -0.98448000       3.83229000      -0.55830000       0.09992000
O        0.08945000      -2.28924000       0.35735000      -0.26886000
H        0.41697000       4.28916000       0.47428000       0.09703000
H        0.25485000      -4.29862000       0.52474000       0.09862000
H       -1.05230000      -3.76556000      -0.59006000       0.09755000
O       -2.37835000      -1.80151000      -3.55216000      -0.24767000
C        2.62762000       0.99468000      -2.13829000      -0.09230000
C        2.51522000      -1.41412000      -1.93785000      -0.09485000
C        4.01533000       0.94223000      -2.09012000      -0.07337000
H        2.12736000       1.95557000      -2.21503000       0.11550000
C        3.90129000      -1.47816000      -1.88568000      -0.07298000
H        1.93489000      -2.32461000      -1.83514000       0.11534000
C        4.66317000      -0.29876000      -1.96823000      -0.09396000
H        4.60326000       1.85267000      -2.14351000       0.11901000
H        4.40343000      -2.43371000      -1.77483000       0.11882000
H        1.01556000      -0.00711000       0.37337000       0.13258000
Br      -4.67615000       0.07123000       1.54008000      -0.29001000
C       -7.48864000       0.61891000      -4.09044000      -0.19423000
C       -7.85431000      -0.76646000      -3.54793000      -0.19350000
C       -6.60634000      -1.51271000      -3.05939000      -0.20378000
C       -5.81949000      -0.71040000      -2.00559000      -0.01158000
C       -5.45594000       0.68970000      -2.55514000      -0.01037000
C       -6.72264000       1.42272000      -3.03216000      -0.20016000
H       -6.88309000      -2.48549000      -2.64740000       0.11390000
H       -8.56099000      -0.65310000      -2.71270000       0.09855000
H       -8.36629000      -1.36054000      -4.31462000       0.10528000
H       -6.86106000       0.50726000      -4.98650000       0.09921000
H       -8.38701000       1.16736000      -4.39902000       0.10460000
H       -6.43193000      -0.56878000      -1.10546000       0.10800000
H       -4.75652000       0.55402000      -3.38885000       0.11096000
H       -7.37293000       1.58970000      -2.15996000       0.10160000
H       -6.46233000       2.41223000      -3.42383000       0.10627000
H       -5.93761000      -1.71428000      -3.90908000       0.10316000
N       -4.58291000      -1.39168000      -1.55234000      -0.34154000
N       -4.71296000       1.46536000      -1.52363000      -0.33007000
H       -5.36824000       1.73182000      -0.78623000       0.20293000
H       -4.02374000      -1.63977000      -2.37643000       0.20950000
C       -4.02364000       2.66873000      -2.05279000      -0.09329000
H       -4.57045000       3.06934000      -2.91665000       0.10172000
H       -3.05326000       2.32893000      -2.42733000       0.11304000
C       -4.76620000      -2.60290000      -0.69984000      -0.10155000
H       -3.83589000      -2.70950000      -0.13794000       0.11558000
H       -5.53811000      -2.36555000       0.03491000       0.11186000
C       -5.07110000      -3.88755000      -1.43703000      -0.05141000
C       -4.19011000      -4.39409000      -2.40194000      -0.09727000
C       -6.21720000      -4.63789000      -1.15825000      -0.09378000
C       -4.45151000      -5.58229000      -3.07625000      -0.13512000
H       -3.28283000      -3.84543000      -2.64508000       0.11173000
C       -6.49307000      -5.83375000      -1.81743000      -0.13839000
H       -6.91640000      -4.28226000      -0.40380000       0.10775000
C       -5.62159000      -6.33202000      -2.81155000       0.09961000
H       -3.73473000      -5.92415000      -3.81328000       0.10960000
H       -7.39431000      -6.37363000      -1.55297000       0.10994000
C       -3.83956000       3.78066000      -1.04135000      -0.04820000
C       -3.98797000       3.61734000       0.33915000      -0.09663000
C       -3.44390000       5.04280000      -1.50095000      -0.09682000
C       -3.76217000       4.67143000       1.22209000      -0.13645000
H       -4.24256000       2.65031000       0.76181000       0.11979000
C       -3.19428000       6.10046000      -0.63139000      -0.13910000
H       -3.31453000       5.20790000      -2.56977000       0.10593000
C       -3.36303000       5.94615000       0.76445000       0.09547000
H       -3.88963000       4.47805000       2.28036000       0.11196000
H       -2.88226000       7.05028000      -1.04887000       0.10955000
C        6.09371000      -0.36213000      -1.91800000       0.16076000
N        7.25524000      -0.41379000      -1.87791000      -0.17868000
N       -5.90616000      -7.50544000      -3.50731000      -0.25471000
C       -4.86570000      -8.10753000      -4.32335000      -0.18186000
C       -6.96960000      -8.36775000      -3.02090000      -0.18196000
H       -5.25649000      -9.01261000      -4.79331000       0.10290000
H       -4.55694000      -7.42856000      -5.12695000       0.09951000
H       -3.96773000      -8.37856000      -3.74346000       0.09224000
H       -6.79717000      -8.72265000      -1.99126000       0.09273000
H       -7.93496000      -7.84812000      -3.04193000       0.09922000
H       -7.05379000      -9.23851000      -3.67466000       0.10293000
N       -3.15318000       7.00675000       1.64524000      -0.25542000
C       -3.07081000       6.72198000       3.06843000      -0.18178000
C       -2.46902000       8.19212000       1.15816000      -0.18172000
H       -2.90650000       7.65465000       3.61246000       0.10262000
H       -4.00871000       6.28952000       3.43417000       0.10102000
H       -2.25459000       6.02393000       3.32044000       0.09172000
H       -1.45860000       7.97711000       0.77037000       0.09091000
H       -3.04228000       8.67364000       0.35733000       0.09927000
H       -2.37742000       8.91444000       1.97214000       0.10334000
