88
R1TS1majorsOMe.xyz  (col5 = NBO charge)
O       -2.14128000       0.20613000      -2.57173000      -0.29064000
N       -1.57989000      -0.88716000      -2.97453000       0.21856000
C       -0.26491000      -1.07925000      -2.72801000      -0.07025000
C        0.49988000      -0.07694000      -2.07708000      -0.05848000
C        1.96407000      -0.20758000      -1.99959000      -0.01680000
O       -1.90759000       1.48890000       0.00320000      -0.31853000
C       -0.69621000       1.27009000       0.11334000       0.41604000
C        0.00258000      -0.00006000      -0.00179000      -0.23604000
C       -0.72321000      -1.24236000       0.12624000       0.41834000
O       -1.92769000      -1.42876000      -0.08989000      -0.32585000
Ni      -3.36741000       0.07046000      -0.68376000       1.34099000
O        0.16450000       2.28784000       0.29278000      -0.26958000
C       -0.42471000       3.60402000       0.36154000      -0.11381000
C       -0.55053000      -3.57837000       0.38671000      -0.11270000
H       -1.29891000      -3.63453000       1.18164000       0.09962000
H        0.13174000       0.93300000      -2.22775000       0.12186000
H        0.11573000      -2.04105000      -3.03604000       0.11623000
H       -1.12193000       3.66890000       1.19881000       0.10175000
H       -0.96851000       3.83571000      -0.55715000       0.09889000
O        0.08480000      -2.28561000       0.38361000      -0.26779000
H        0.41521000       4.28511000       0.50052000       0.09730000
H        0.25339000      -4.29289000       0.56473000       0.09876000
H       -1.03608000      -3.77040000      -0.57436000       0.09743000
O       -2.26101000      -1.75493000      -3.58888000      -0.26174000
C        2.76202000       0.94458000      -2.01447000      -0.06278000
C        2.60569000      -1.45545000      -1.86528000      -0.09802000
C        4.15222000       0.87325000      -1.93460000      -0.16210000
H        2.28518000       1.91877000      -2.08374000       0.10770000
C        3.98528000      -1.54200000      -1.78094000      -0.12550000
H        2.01265000      -2.36177000      -1.79700000       0.11064000
C        4.77294000      -0.37822000      -1.82129000       0.17231000
H        4.73381000       1.78721000      -1.95833000       0.11449000
H        4.48610000      -2.49895000      -1.67543000       0.11646000
H        1.00746000      -0.00599000       0.39845000       0.13354000
Br      -4.77807000       0.07708000       1.38523000      -0.29260000
C       -7.27354000       0.53892000      -4.39260000      -0.19430000
C       -7.65726000      -0.84266000      -3.85282000      -0.19347000
C       -6.43099000      -1.56875000      -3.28570000      -0.20373000
C       -5.71054000      -0.74513000      -2.20155000      -0.01135000
C       -5.33093000       0.65261000      -2.74578000      -0.01085000
C       -6.57685000       1.36450000      -3.30354000      -0.20016000
H       -6.72190000      -2.53857000      -2.87480000       0.11260000
H       -8.41050000      -0.72528000      -3.05993000       0.09859000
H       -8.11994000      -1.45152000      -4.63896000       0.10544000
H       -6.59458000       0.42152000      -5.24956000       0.09955000
H       -8.15775000       1.07430000      -4.75947000       0.10471000
H       -6.37159000      -0.59948000      -1.33703000       0.10802000
H       -4.58200000       0.51595000      -3.53499000       0.11208000
H       -7.27732000       1.53531000      -2.47184000       0.10145000
H       -6.30636000       2.35174000      -3.69417000       0.10598000
H       -5.71440000      -1.77522000      -4.09397000       0.10390000
N       -4.49476000      -1.41017000      -1.67741000      -0.34393000
N       -4.65796000       1.44779000      -1.68052000      -0.33019000
H       -5.35597000       1.70713000      -0.98080000       0.20274000
H       -3.88199000      -1.64953000      -2.46688000       0.21213000
C       -3.95906000       2.65322000      -2.18490000      -0.09784000
H       -4.47859000       3.05629000      -3.06408000       0.10327000
H       -2.97440000       2.32101000      -2.52702000       0.11740000
C       -4.71594000      -2.61097000      -0.82690000      -0.10478000
H       -3.82746000      -2.70187000      -0.19835000       0.11854000
H       -5.54254000      -2.38325000      -0.15118000       0.11238000
C       -4.94058000      -3.91508000      -1.56605000      -0.02161000
C       -3.99672000      -4.37849000      -2.49526000      -0.11155000
C       -6.06900000      -4.70105000      -1.30330000      -0.10775000
C       -4.19107000      -5.59149000      -3.15656000      -0.10272000
H       -3.11583000      -3.78010000      -2.71513000       0.11440000
C       -6.26173000      -5.91929000      -1.95942000      -0.10486000
H       -6.80408000      -4.35268000      -0.58084000       0.10898000
C       -5.32381000      -6.36635000      -2.89157000      -0.11157000
H       -3.45541000      -5.93316000      -3.88037000       0.10818000
H       -7.14524000      -6.51504000      -1.74462000       0.10844000
H       -5.47306000      -7.31128000      -3.40740000       0.10812000
C       -3.80544000       3.77040000      -1.17206000      -0.02064000
C       -4.02122000       3.60674000       0.20074000      -0.10980000
C       -3.39146000       5.02491000      -1.64564000      -0.11017000
C       -3.83282000       4.68065000       1.07568000      -0.10284000
H       -4.29947000       2.64081000       0.61052000       0.12126000
C       -3.18727000       6.09136000      -0.77054000      -0.10773000
H       -3.22570000       5.16569000      -2.71252000       0.10724000
C       -3.41158000       5.92250000       0.59911000      -0.11403000
H       -4.00774000       4.53237000       2.13811000       0.11047000
H       -2.86457000       7.05439000      -1.15802000       0.10821000
H       -3.26254000       6.75275000       1.28453000       0.10832000
O        6.11566000      -0.57497000      -1.73562000      -0.27321000
C        6.96933000       0.56060000      -1.75791000      -0.11087000
H        6.76942000       1.23128000      -0.91150000       0.08987000
H        7.98587000       0.17164000      -1.67810000       0.10036000
H        6.86783000       1.12229000      -2.69622000       0.08975000
