102
R1TS8majorsNMe2cNO2.xyz  (col5 = NBO charge)
O       -2.08551000       0.19709000      -2.57122000      -0.29684000
N       -1.50975000      -0.89883000      -2.96359000       0.21347000
C       -0.20188000      -1.07498000      -2.71240000      -0.05957000
C        0.55408000      -0.06230000      -2.04903000      -0.05987000
C        2.01167000      -0.17951000      -1.95707000      -0.01674000
O       -1.90915000       1.48600000      -0.00790000      -0.32148000
C       -0.69777000       1.26824000       0.12560000       0.41838000
C        0.00484000       0.00026000      -0.00146000      -0.23033000
C       -0.71922000      -1.24493000       0.11386000       0.41961000
O       -1.93081000      -1.42177000      -0.07900000      -0.32880000
Ni      -3.34570000       0.06977000      -0.74890000       1.34482000
O        0.15899000       2.27916000       0.34511000      -0.27269000
C       -0.42557000       3.60615000       0.41533000      -0.02678000
C       -0.51722000      -3.60398000       0.28099000      -0.02292000
H       -1.23161000      -3.69076000       1.10614000       0.09870000
H        0.17958000       0.94400000      -2.21044000       0.12290000
H        0.19380000      -2.02893000      -3.02554000       0.11554000
H       -1.08549000       3.64496000       1.28629000       0.09807000
H       -1.04024000       3.76316000      -0.47296000       0.09891000
O        0.09282000      -2.29016000       0.32988000      -0.27242000
H       -1.07524000      -3.70068000      -0.65583000       0.09650000
O       -2.19105000      -1.77882000      -3.57254000      -0.27341000
C        2.79959000       0.98223000      -1.87177000      -0.09177000
C        2.67862000      -1.41582000      -1.88254000      -0.09563000
C        4.17931000       0.92528000      -1.75750000      -0.14023000
H        2.31116000       1.95353000      -1.88351000       0.10930000
C        4.05712000      -1.49314000      -1.76567000      -0.13882000
H        2.10659000      -2.33860000      -1.88891000       0.10770000
C        4.85471000      -0.32091000      -1.71207000       0.11395000
H        4.73393000       1.85368000      -1.70031000       0.11266000
H        4.51693000      -2.47198000      -1.70761000       0.11221000
H        1.00404000      -0.00761000       0.41234000       0.13470000
Br      -4.87196000       0.16505000       1.23892000      -0.29423000
C       -7.15755000       0.09388000      -4.61401000      -0.19422000
C       -7.51781000      -1.24600000      -3.96428000      -0.19361000
C       -6.28641000      -1.87338000      -3.30021000      -0.20304000
C       -5.62967000      -0.93055000      -2.27570000      -0.01080000
C       -5.28052000       0.42989000      -2.91946000      -0.01214000
C       -6.52815000       1.04121000      -3.58383000      -0.20019000
H       -6.55745000      -2.81255000      -2.80817000       0.10957000
H       -8.29919000      -1.08452000      -3.20745000       0.09902000
H       -7.93509000      -1.93697000      -4.70633000       0.10630000
H       -6.44489000      -0.07673000      -5.43364000       0.10028000
H       -8.04415000       0.56280000      -5.05729000       0.10557000
H       -6.31994000      -0.73913000      -1.44367000       0.10877000
H       -4.49283000       0.26052000      -3.66316000       0.11346000
H       -7.26470000       1.26470000      -2.79695000       0.10156000
H       -6.27741000       1.99464000      -4.06120000       0.10588000
H       -5.53878000      -2.12544000      -4.06613000       0.10480000
N       -4.40779000      -1.50561000      -1.66989000      -0.34689000
N       -4.68115000       1.33051000      -1.89126000      -0.32986000
H       -5.41224000       1.59160000      -1.22661000       0.20185000
H       -3.75602000      -1.75834000      -2.42424000       0.21392000
C       -4.04313000       2.52822000      -2.46972000      -0.10369000
H       -4.65896000       2.95217000      -3.27534000       0.10719000
H       -3.10969000       2.18707000      -2.92827000       0.12205000
C       -4.62801000      -2.65609000      -0.75830000      -0.10814000
H       -3.82297000      -2.63273000      -0.02053000       0.12442000
H       -5.54972000      -2.46924000      -0.20423000       0.11360000
C       -4.64381000      -4.02393000      -1.41045000       0.00351000
C       -3.61554000      -4.41561000      -2.28484000      -0.11078000
C       -5.65290000      -4.94553000      -1.09628000      -0.10417000
C       -3.60068000      -5.69166000      -2.83886000      -0.08878000
H       -2.83081000      -3.71419000      -2.55401000       0.12126000
C       -5.65101000      -6.22849000      -1.63800000      -0.08979000
H       -6.45138000      -4.65401000      -0.41898000       0.11473000
C       -4.62034000      -6.58384000      -2.50614000       0.02631000
H       -2.81823000      -6.00431000      -3.51936000       0.12551000
H       -6.42688000      -6.94724000      -1.40476000       0.12602000
C       -3.74406000       3.63986000      -1.48705000       0.00462000
C       -4.03897000       3.57391000      -0.12033000      -0.10520000
C       -3.12155000       4.79343000      -1.99640000      -0.10539000
C       -3.70988000       4.63299000       0.72443000      -0.08511000
H       -4.46717000       2.67881000       0.32012000       0.12586000
C       -2.75930000       5.84363000      -1.16290000      -0.09450000
H       -2.89856000       4.85622000      -3.05905000       0.11367000
C       -3.05737000       5.74415000       0.19766000       0.02031000
H       -3.91784000       4.58312000       1.78642000       0.12739000
H       -2.24878000       6.72168000      -1.53870000       0.12563000
C        0.60606000      -4.61707000       0.38573000      -0.30200000
H        0.19463000      -5.63153000       0.35715000       0.10990000
H        1.30808000      -4.50435000      -0.44731000       0.10329000
H        1.15860000      -4.49082000       1.32194000       0.10709000
C        0.70362000       4.61211000       0.50836000      -0.30315000
H        1.35659000       4.54663000      -0.36878000       0.10346000
H        0.28365000       5.62341000       0.55182000       0.11077000
H        1.30886000       4.44625000       1.40505000       0.10692000
N        6.22769000      -0.39084000      -1.61473000      -0.24373000
C        6.88204000      -1.68185000      -1.47602000      -0.18260000
C        7.00761000       0.82676000      -1.46106000      -0.18252000
H        7.96223000      -1.53519000      -1.43070000       0.10542000
H        6.56986000      -2.20911000      -0.56241000       0.09705000
H        6.66856000      -2.33132000      -2.33490000       0.09960000
H        6.86553000       1.50187000      -2.31500000       0.09952000
H        6.74398000       1.37463000      -0.54441000       0.09726000
H        8.06732000       0.57202000      -1.41131000       0.10535000
N       -2.61618000       6.81230000       1.10222000       0.25055000
O       -3.05334000       6.81178000       2.25182000      -0.19432000
O       -1.81432000       7.63983000       0.65892000      -0.20159000
N       -4.60747000      -7.93484000      -3.08605000       0.25078000
O       -5.52790000      -8.69624000      -2.78665000      -0.19859000
O       -3.67577000      -8.22732000      -3.83659000      -0.19875000
