108
R1TS1minorsNMe2cNMe2.xyz  (col5 = NBO charge)
O       -2.33823000       1.32732000       3.92419000      -0.27156000
N       -1.33637000       1.19265000       3.15439000       0.23031000
C       -1.02159000      -0.07367000       2.70664000      -0.11831000
C        0.21498000      -0.30310000       2.04073000      -0.05381000
C        0.83157000      -1.64545000       2.08280000      -0.06948000
O       -1.91496000      -1.44417000      -0.02459000      -0.33323000
C       -0.73827000      -1.20013000      -0.34035000       0.41879000
C        0.00068000      -0.00021000       0.00744000      -0.22164000
C       -0.71331000       1.25797000      -0.03216000       0.41969000
O       -1.93529000       1.38334000       0.15570000      -0.33833000
Ni      -3.25643000      -0.08321000       0.80648000       1.35540000
O        0.00930000      -2.11433000      -0.96389000      -0.26178000
C       -0.62560000      -3.38101000      -1.22685000      -0.11499000
C       -0.56918000       3.60376000      -0.06959000      -0.11321000
H       -1.36634000       3.72941000      -0.80732000       0.09658000
H        0.91319000       0.52655000       2.12127000       0.12888000
H       -1.61704000      -0.85021000       3.15633000       0.11527000
H       -1.52225000      -3.23844000      -1.83292000       0.10086000
H       -0.90204000      -3.86978000      -0.29206000       0.10199000
O        0.06821000       2.31936000      -0.23193000      -0.26252000
H        0.12168000      -3.96788000      -1.76223000       0.09696000
H        0.22195000       4.33624000      -0.23036000       0.09755000
H       -0.97940000       3.68373000       0.93921000       0.10637000
O       -0.65501000       2.18376000       2.79461000      -0.25181000
C        2.22463000      -1.78703000       1.99218000      -0.07680000
C        0.07344000      -2.82548000       2.14324000      -0.08752000
C        2.83725000      -3.03355000       1.97377000      -0.13649000
H        2.84628000      -0.89666000       1.92697000       0.10911000
C        0.66537000      -4.07912000       2.11755000      -0.14010000
H       -1.00819000      -2.77617000       2.15055000       0.11182000
C        2.07062000      -4.22181000       2.03722000       0.10694000
H        3.91697000      -3.07778000       1.89913000       0.11196000
H        0.01656000      -4.94541000       2.13309000       0.11280000
H        1.02606000       0.02974000      -0.34236000       0.13090000
Br      -4.92490000      -0.21616000      -1.04890000      -0.28584000
C       -7.00230000      -0.29308000       4.74691000      -0.19391000
C       -7.38376000       1.05457000       4.12694000      -0.19326000
C       -6.16251000       1.72447000       3.48632000      -0.20395000
C       -5.48707000       0.81606000       2.44291000      -0.01136000
C       -5.10314000      -0.54230000       3.06626000      -0.01334000
C       -6.34104000      -1.20223000       3.70207000      -0.19995000
H       -6.44946000       2.66823000       3.01612000       0.11283000
H       -8.15717000       0.89536000       3.36114000       0.09847000
H       -7.82047000       1.71827000       4.88298000       0.10547000
H       -6.30125000      -0.12774000       5.57764000       0.10011000
H       -7.88254000      -0.79295000       5.16941000       0.10458000
H       -6.17748000       0.62174000       1.61193000       0.11036000
H       -4.33548000      -0.35843000       3.82897000       0.11230000
H       -7.06257000      -1.42558000       2.90139000       0.10225000
H       -6.07503000      -2.15889000       4.16369000       0.10556000
H       -5.42299000       1.97566000       4.25967000       0.10584000
N       -4.27787000       1.41900000       1.83819000      -0.35211000
N       -4.45840000      -1.39959000       2.02405000      -0.34245000
H       -5.17854000      -1.64953000       1.34165000       0.20513000
H       -3.64022000       1.65744000       2.60930000       0.21233000
C       -3.85471000      -2.62937000       2.57805000      -0.08993000
H       -4.50759000      -3.06066000       3.34863000       0.10508000
H       -2.94024000      -2.32862000       3.10078000       0.10106000
C       -4.52436000       2.63211000       1.00178000      -0.09960000
H       -3.73615000       2.64766000       0.24874000       0.11884000
H       -5.46109000       2.47129000       0.46300000       0.10913000
C       -4.53863000       3.94572000       1.75439000      -0.05263000
C       -3.49633000       4.30799000       2.61977000      -0.10819000
C       -5.57549000       4.86630000       1.57679000      -0.09525000
C       -3.49740000       5.53147000       3.28239000      -0.11480000
H       -2.67227000       3.62567000       2.81286000       0.11558000
C       -5.58841000       6.09830000       2.22763000      -0.13880000
H       -6.40441000       4.61549000       0.91716000       0.10651000
C       -4.53827000       6.46968000       3.09556000       0.09265000
H       -2.67350000       5.74829000       3.95160000       0.11031000
H       -6.42609000       6.76386000       2.05666000       0.10920000
C       -3.54655000      -3.71516000       1.56760000      -0.04748000
C       -3.93457000      -3.68231000       0.22610000      -0.09210000
C       -2.85759000      -4.85035000       2.01225000      -0.09753000
C       -3.65703000      -4.74420000      -0.63254000      -0.13348000
H       -4.41552000      -2.80542000      -0.19665000       0.11850000
C       -2.55334000      -5.90916000       1.16235000      -0.13914000
H       -2.53400000      -4.90808000       3.05056000       0.10684000
C       -2.95812000      -5.88856000      -0.19282000       0.09437000
H       -3.97051000      -4.65058000      -1.66506000       0.11203000
H       -2.00668000      -6.75383000       1.56461000       0.10937000
N        2.66482000      -5.47465000       2.01825000      -0.24892000
C        4.08395000      -5.58515000       1.72395000      -0.18207000
C        1.82782000      -6.64977000       1.84469000      -0.18192000
H        4.37889000      -6.63559000       1.76251000       0.10426000
H        4.34343000      -5.18834000       0.72941000       0.09467000
H        4.68110000      -5.04787000       2.47032000       0.10049000
H        1.11515000      -6.75164000       2.67221000       0.09987000
H        1.25173000      -6.62461000       0.90485000       0.09313000
H        2.45621000      -7.54243000       1.83903000       0.10468000
N       -4.52334000       7.71077000       3.73440000      -0.25696000
C       -5.73603000       8.51037000       3.72878000      -0.18194000
C       -3.58917000       7.91938000       4.82837000      -0.18229000
H       -5.55505000       9.44176000       4.27005000       0.10249000
H       -6.02212000       8.77790000       2.70479000       0.09914000
H       -6.59293000       7.99747000       4.19757000       0.09178000
H       -3.73098000       7.20593000       5.65720000       0.09272000
H       -2.55376000       7.83011000       4.48008000       0.09954000
H       -3.71528000       8.93146000       5.21959000       0.10209000
N       -2.67336000      -6.95051000      -1.05250000      -0.25614000
C       -2.85847000      -6.75260000      -2.48139000      -0.18187000
C       -1.67279000      -7.92065000      -0.64287000      -0.18151000
H       -2.60380000      -7.67527000      -3.00740000       0.10303000
H       -3.90499000      -6.52388000      -2.70896000       0.10166000
H       -2.23599000      -5.93706000      -2.88741000       0.09115000
H       -0.68840000      -7.46217000      -0.44090000       0.08932000
H       -1.98873000      -8.45271000       0.26171000       0.09951000
H       -1.54905000      -8.66562000      -1.43174000       0.10392000
