121
R3TS20majorsOMecNO2.xyz  (col5 = NBO charge)
O       -1.51810000      -2.11951000       3.30671000      -0.43581000
N       -2.09933000      -1.04036000       3.11629000       0.47563000
C       -1.42282000       0.10498000       2.75569000      -0.16015000
C       -0.07241000       0.06766000       2.43771000      -0.04947000
C        0.82770000       1.21429000       2.51802000      -0.13389000
O       -1.88793000      -1.52438000       0.10566000      -0.71547000
C       -0.69174000      -1.28248000      -0.07760000       0.78741000
C       -0.03769000      -0.00701000      -0.01482000      -0.52192000
C       -0.69571000       1.25910000      -0.14922000       0.78542000
O       -1.89767000       1.53405000      -0.02443000      -0.73427000
Ru      -5.00415000       0.35948000       2.55767000       0.18813000
S       -7.26475000      -1.96800000       2.63848000       2.25841000
O       -7.15691000      -1.80469000       4.09898000      -0.94345000
O       -8.46914000      -1.39746000       1.97338000      -0.98112000
N       -4.10205000      -0.04472000       0.69626000      -0.74641000
N       -5.86779000      -1.47135000       1.95586000      -0.88166000
C       -4.92306000      -0.87034000      -0.23815000      -0.02423000
C       -5.61127000      -1.98269000       0.58521000      -0.04664000
C       -5.83070000       0.02254000      -1.06398000      -0.04160000
C       -5.22640000       0.81031000      -2.05777000      -0.20982000
C       -5.98329000       1.67848000      -2.84190000      -0.21036000
C       -7.36631000       1.76334000      -2.65112000      -0.21965000
C       -7.97534000       0.97591000      -1.67362000      -0.21078000
C       -7.21320000       0.11267000      -0.87921000      -0.22406000
C       -4.79698000      -3.27710000       0.57770000      -0.03626000
C       -5.00972000      -4.20713000      -0.44689000      -0.21771000
C       -4.31367000      -5.41739000      -0.46942000      -0.21644000
C       -3.39194000      -5.71011000       0.53927000      -0.22601000
C       -3.17035000      -4.78034000       1.55769000      -0.21492000
C       -3.86747000      -3.57269000       1.57710000      -0.20440000
C       -4.37980000       2.56599000       2.94148000      -0.01353000
C       -4.38951000       1.86288000       4.17474000       0.04454000
C       -5.58868000       1.18024000       4.62578000      -0.03370000
C       -6.77469000       1.29395000       3.86454000       0.08199000
C       -6.72821000       1.84091000       2.53133000      -0.00738000
C       -5.51344000       2.43629000       2.05761000       0.03908000
C       -3.22193000       3.42929000       2.48678000      -0.62542000
C       -5.59114000       0.41347000       5.92948000      -0.60657000
C       -8.02276000       1.92872000       1.75894000      -0.61456000
H       -3.22820000      -0.57244000       0.83405000       0.45762000
H       -4.21526000      -1.34835000      -0.92472000       0.23943000
H       -6.55588000      -2.21014000       0.07633000       0.22330000
H       -4.14948000       0.74793000      -2.20394000       0.22528000
H       -5.49813000       2.28199000      -3.60437000       0.21953000
H       -7.96263000       2.43382000      -3.26418000       0.21859000
H       -9.04895000       1.03651000      -1.51524000       0.21986000
H       -7.70336000      -0.46579000      -0.10335000       0.24191000
H       -5.74494000      -3.99589000      -1.22148000       0.21293000
H       -4.50539000      -6.13692000      -1.26132000       0.21628000
H       -2.86015000      -6.65810000       0.53402000       0.21531000
H       -2.45599000      -4.98969000       2.34814000       0.21720000
H       -3.71914000      -2.87429000       2.38837000       0.24516000
H       -3.60549000       4.37033000       2.07923000       0.23053000
H       -2.56035000       3.69242000       3.31195000       0.21857000
H       -2.63107000       2.95176000       1.69757000       0.25408000
H       -5.97271000       1.03185000       6.75304000       0.22102000
H       -6.21326000      -0.47674000       5.83440000       0.25194000
H       -4.59099000       0.07502000       6.19886000       0.22608000
H       -7.88782000       2.32392000       0.75581000       0.22778000
H       -8.49827000       0.94938000       1.67886000       0.25331000
H       -8.71204000       2.59671000       2.29230000       0.22301000
H       -3.75055000       0.78477000       0.21651000       0.43867000
H       -2.04334000       0.97975000       2.68737000       0.23096000
C       -7.33322000      -3.74029000       2.30693000      -0.23450000
C       -6.46789000      -4.58371000       3.00575000      -0.17408000
C       -8.18714000      -4.22322000       1.31476000      -0.19771000
C       -6.42139000      -5.93350000       2.67580000      -0.17473000
H       -5.81679000      -4.17537000       3.76972000       0.25453000
C       -8.14930000      -5.57502000       0.98296000      -0.18367000
H       -8.85845000      -3.53913000       0.80803000       0.25253000
C       -7.25284000      -6.40126000       1.65856000       0.07231000
H       -5.73822000      -6.61406000       3.16658000       0.25779000
H       -8.78140000      -5.98947000       0.20784000       0.25467000
H        1.02887000      -0.00525000      -0.19558000       0.23865000
O        0.22297000       2.24618000      -0.37455000      -0.57909000
C       -0.27593000       3.58832000      -0.45373000      -0.03989000
H       -1.04042000       3.64939000      -1.23693000       0.18569000
H       -0.75149000       3.85785000       0.49597000       0.17719000
O        0.21337000      -2.27306000      -0.31734000      -0.58117000
C       -0.24245000      -3.64042000      -0.22534000      -0.04856000
H        0.23362000      -4.15903000      -1.06342000       0.18170000
H       -1.32668000      -3.67780000      -0.34432000       0.21214000
H        0.39299000      -0.91228000       2.46298000       0.25440000
C        2.19611000       1.03748000       2.25471000      -0.13048000
C        0.38927000       2.51334000       2.83957000      -0.16908000
C        3.09167000       2.10136000       2.27604000      -0.29889000
H        2.56002000       0.04522000       2.00090000       0.22395000
C        1.26680000       3.58449000       2.86721000      -0.25604000
H       -0.65341000       2.68582000       3.06908000       0.21595000
C        2.62548000       3.39173000       2.57025000       0.35093000
H        4.13692000       1.92103000       2.05494000       0.23139000
H        0.92814000       4.58684000       3.10931000       0.23093000
O       -3.37519000      -0.98227000       3.35789000      -0.44713000
C       -8.11711000       0.90272000       4.42841000      -0.61442000
H       -8.67542000       1.83300000       4.60868000       0.22456000
H       -8.69821000       0.28935000       3.74123000       0.25229000
H       -8.03825000       0.36229000       5.36724000       0.23448000
C       -5.43569000       3.06299000       0.68367000      -0.61443000
H       -5.71405000       4.12412000       0.73911000       0.23075000
H       -4.42640000       3.00566000       0.27116000       0.23277000
H       -6.09978000       2.57488000      -0.02632000       0.24054000
C       -3.17868000       1.80889000       5.07924000      -0.60572000
H       -3.43095000       2.20156000       6.07055000       0.23322000
H       -2.84777000       0.77441000       5.20180000       0.24217000
H       -2.33173000       2.37617000       4.69887000       0.22002000
C        0.18509000      -4.22677000       1.11173000      -0.61932000
H       -0.10978000      -5.28048000       1.17320000       0.20986000
H        1.27210000      -4.16104000       1.23316000       0.20108000
H       -0.29788000      -3.68451000       1.92936000       0.22371000
C        0.91249000       4.48780000      -0.74516000      -0.60272000
H        0.58473000       5.52968000      -0.83481000       0.20895000
H        1.64816000       4.42304000       0.06227000       0.21053000
H        1.39760000       4.19365000      -1.68161000       0.20895000
O        3.39716000       4.51133000       2.59036000      -0.54410000
C        4.77941000       4.38734000       2.28132000      -0.22171000
H        4.93012000       3.99647000       1.26639000       0.18146000
H        5.19093000       5.39601000       2.34564000       0.20055000
H        5.29571000       3.73772000       3.00045000       0.18048000
N       -7.16514000      -7.81946000       1.26918000       0.50378000
O       -7.89387000      -8.20804000       0.35607000      -0.39193000
O       -6.36453000      -8.53070000       1.87501000      -0.38688000
