125
R3TS20minorsNMe2cNO2.xyz  (col5 = NBO charge)
O       -2.97381000      -1.88009000      -2.95607000      -0.43268000
N       -1.72184000      -1.56221000      -2.77229000       0.47129000
C       -1.35553000      -0.25303000      -2.63575000      -0.16320000
C       -0.03479000       0.07694000      -2.32571000      -0.10423000
C        0.51815000       1.41299000      -2.52937000      -0.02671000
O       -1.88278000       1.49857000      -0.06411000      -0.71246000
C       -0.69331000       1.25796000       0.15145000       0.79135000
C        0.00217000       0.00061000      -0.00582000      -0.50054000
C       -0.67167000      -1.26364000       0.11226000       0.79413000
O       -1.89589000      -1.44755000       0.04890000      -0.72024000
Ru      -4.74171000      -0.71186000      -2.74011000       0.12932000
S       -5.03798000      -3.86339000      -1.97963000       2.25826000
O       -5.08407000      -3.89070000      -3.45433000      -0.94463000
O       -3.88834000      -4.44271000      -1.26257000      -0.93940000
N       -4.15278000      -0.05988000      -0.81758000      -0.74630000
N       -5.42192000      -2.32823000      -1.48178000      -0.87711000
C       -5.16962000      -0.56691000       0.14066000      -0.01907000
C       -5.13843000      -2.09795000      -0.03574000      -0.06332000
C       -5.00271000      -0.07506000       1.56491000      -0.05561000
C       -6.14214000       0.33633000       2.26949000      -0.20104000
C       -6.04866000       0.76691000       3.59278000      -0.21177000
C       -4.80514000       0.79971000       4.22712000      -0.21252000
C       -3.66466000       0.39514000       3.53018000      -0.20551000
C       -3.75887000      -0.04350000       2.20855000      -0.20565000
C       -6.12734000      -2.76164000       0.90610000      -0.03563000
C       -5.66133000      -3.45697000       2.02558000      -0.20399000
C       -6.55624000      -4.06061000       2.91141000      -0.20680000
C       -7.93096000      -3.97542000       2.68410000      -0.21666000
C       -8.40500000      -3.27099000       1.57306000      -0.21133000
C       -7.50793000      -2.66557000       0.69507000      -0.21977000
C       -4.85886000       1.35714000      -3.70928000      -0.00718000
C       -6.08606000       1.02960000      -3.00199000       0.01740000
C       -6.81486000      -0.14868000      -3.34500000       0.01245000
C       -6.35095000      -0.98053000      -4.43871000       0.05061000
C       -5.09307000      -0.73679000      -5.02891000       0.00905000
C       -4.32937000       0.44388000      -4.65780000       0.01850000
C       -4.15244000       2.65082000      -3.34936000      -0.61012000
C       -8.07606000      -0.56341000      -2.62380000      -0.60231000
C       -4.55626000      -1.74637000      -6.01830000      -0.61173000
H       -4.02786000       0.94635000      -0.71490000       0.41334000
H       -6.14540000      -0.22317000      -0.21728000       0.21323000
H       -4.12617000      -2.43454000       0.21803000       0.24890000
H       -7.11405000       0.29733000       1.78288000       0.21281000
H       -6.94416000       1.07556000       4.12576000       0.21718000
H       -4.72622000       1.13781000       5.25714000       0.21651000
H       -2.69268000       0.41837000       4.01627000       0.21733000
H       -2.87111000      -0.35742000       1.67523000       0.24500000
H       -4.59027000      -3.53073000       2.19495000       0.22445000
H       -6.17905000      -4.60493000       3.77319000       0.21870000
H       -8.62922000      -4.45840000       3.36221000       0.21932000
H       -9.47377000      -3.20658000       1.38539000       0.21636000
H       -7.87100000      -2.14429000      -0.18423000       0.21666000
H       -4.87293000       3.47108000      -3.27926000       0.23665000
H       -3.63611000       2.58788000      -2.38342000       0.22442000
H       -3.41681000       2.93900000      -4.09938000       0.23011000
H       -8.96387000      -0.36281000      -3.23654000       0.23112000
H       -8.03910000      -1.63122000      -2.39876000       0.23628000
H       -8.20578000      -0.04727000      -1.67376000       0.22042000
H       -3.58075000      -1.47261000      -6.41465000       0.22482000
H       -4.46008000      -2.71851000      -5.52420000       0.26383000
H       -5.23902000      -1.85819000      -6.86887000       0.22411000
H       -3.22657000      -0.44989000      -0.56621000       0.47592000
H       -2.16982000       0.44919000      -2.64231000       0.20635000
C       -6.47445000      -4.84243000      -1.45302000      -0.21056000
C       -7.69284000      -4.68143000      -2.11778000      -0.20582000
C       -6.35632000      -5.70230000      -0.36203000      -0.19271000
C       -8.82125000      -5.35035000      -1.65952000      -0.18688000
H       -7.75301000      -4.03160000      -2.98162000       0.23752000
C       -7.48216000      -6.37178000       0.11003000      -0.17157000
H       -5.39574000      -5.81177000       0.12589000       0.25679000
C       -8.69930000      -6.17451000      -0.53899000       0.06259000
H       -9.78524000      -5.24072000      -2.14042000       0.25156000
H       -7.43427000      -7.01983000       0.97546000       0.25624000
H        1.06618000       0.00803000       0.19463000       0.24350000
O        0.17865000      -2.30478000       0.22671000      -0.56867000
C       -0.42849000      -3.61838000       0.13439000      -0.05271000
H       -1.04041000      -3.78604000       1.02822000       0.17987000
H       -1.08815000      -3.64736000      -0.73672000       0.22064000
O        0.17876000       2.24938000       0.49383000      -0.57537000
C       -0.36636000       3.57506000       0.57956000      -0.04228000
H       -1.08075000       3.61921000       1.41054000       0.18498000
H       -0.91086000       3.80436000      -0.34112000       0.18587000
C        1.90265000       1.62404000      -2.40303000      -0.16995000
C       -0.27168000       2.53974000      -2.81547000      -0.20020000
C        2.47231000       2.87893000      -2.54332000      -0.27566000
H        2.54450000       0.77889000      -2.16654000       0.22045000
C        0.27933000       3.80475000      -2.95973000      -0.28205000
H       -1.34554000       2.43489000      -2.90659000       0.20619000
C        1.67285000       4.01540000      -2.82215000       0.21894000
H        3.54363000       2.97732000      -2.42015000       0.22597000
H       -0.38359000       4.63529000      -3.16993000       0.22167000
H        0.66997000      -0.74726000      -2.34552000       0.25954000
O       -0.89241000      -2.48503000      -2.79660000      -0.44679000
C       -7.17096000      -2.14361000      -4.94212000      -0.62670000
H       -7.30900000      -2.05496000      -6.02609000       0.22922000
H       -6.65447000      -3.08541000      -4.74210000       0.26881000
H       -8.16231000      -2.18128000      -4.49209000       0.21995000
C       -6.57109000       1.99934000      -1.94552000      -0.59953000
H       -5.75866000       2.34140000      -1.29909000       0.22430000
H       -7.00202000       2.88822000      -2.42394000       0.23587000
H       -7.33758000       1.57516000      -1.30034000       0.22701000
C       -2.99648000       0.66919000      -5.33701000      -0.60717000
H       -2.36875000      -0.22004000      -5.25220000       0.24210000
H       -3.14685000       0.87896000      -6.40333000       0.23559000
H       -2.42776000       1.49086000      -4.90669000       0.22242000
C        0.70576000      -4.61847000       0.02130000      -0.60242000
H        0.29883000      -5.63383000      -0.03792000       0.21373000
H        1.28942000      -4.42771000      -0.88510000       0.20865000
H        1.37563000      -4.55985000       0.88631000       0.20220000
C        0.80380000       4.52167000       0.78205000      -0.60520000
H        0.44733000       5.55621000       0.84998000       0.20756000
H        1.34682000       4.28050000       1.70176000       0.20990000
H        1.49835000       4.44310000      -0.06001000       0.21010000
N        2.22863000       5.27757000      -2.95196000      -0.49467000
C        1.35187000       6.43758000      -2.97710000      -0.36495000
C        3.62474000       5.47967000      -2.59592000      -0.36563000
H        1.95563000       7.34295000      -3.06115000       0.21083000
H        0.68245000       6.40654000      -3.84508000       0.19938000
H        0.73305000       6.51648000      -2.06911000       0.19002000
H        3.83062000       5.24151000      -1.54036000       0.19143000
H        4.28069000       4.86183000      -3.21986000       0.20263000
H        3.89233000       6.52321000      -2.77158000       0.20972000
N       -9.90064000      -6.83965000      -0.01431000       0.50266000
O       -9.77597000      -7.54406000       0.98784000      -0.38958000
O      -10.96629000      -6.64696000      -0.60247000      -0.39628000
