122
R3TS20majorsOMe.xyz  (col5 = NBO charge)
O       -1.46296000      -2.11614000       3.30737000      -0.44164000
N       -2.04958000      -1.03579000       3.13509000       0.47430000
C       -1.38299000       0.10887000       2.75530000      -0.16386000
C       -0.03922000       0.07400000       2.40461000      -0.05638000
C        0.86062000       1.22418000       2.48322000      -0.13023000
O       -1.88794000      -1.52139000       0.10452000      -0.70972000
C       -0.69248000      -1.28243000      -0.07831000       0.78855000
C       -0.03572000      -0.00676000      -0.01034000      -0.51709000
C       -0.69722000       1.25827000      -0.15539000       0.78681000
O       -1.89737000       1.53158000      -0.02089000      -0.72942000
Ru      -4.98548000       0.36552000       2.61737000       0.18930000
S       -7.24058000      -1.96575000       2.75110000       2.25805000
O       -7.10239000      -1.79411000       4.20932000      -0.95033000
O       -8.44382000      -1.36551000       2.10667000      -0.98740000
N       -4.10079000      -0.04684000       0.74616000      -0.74581000
N       -5.84393000      -1.46464000       2.04665000      -0.87726000
C       -4.93380000      -0.88417000      -0.16615000      -0.02412000
C       -5.59912000      -1.99173000       0.68193000      -0.04770000
C       -5.86301000      -0.00227000      -0.97944000      -0.04070000
C       -5.28577000       0.77562000      -1.99670000      -0.21052000
C       -6.06412000       1.63360000      -2.77114000      -0.21180000
C       -7.44210000       1.71722000      -2.54658000      -0.22098000
C       -8.02422000       0.93942000      -1.54514000      -0.21131000
C       -7.24049000       0.08705000      -0.76008000      -0.22392000
C       -4.76695000      -3.27563000       0.67356000      -0.02883000
C       -4.93586000      -4.18509000      -0.37725000      -0.21567000
C       -4.20662000      -5.37490000      -0.41680000      -0.21728000
C       -3.29788000      -5.66961000       0.60329000      -0.23144000
C       -3.12448000      -4.76275000       1.65104000      -0.21216000
C       -3.85380000      -3.57469000       1.68622000      -0.20326000
C       -4.34841000       2.57558000       2.98548000      -0.01477000
C       -4.33538000       1.87617000       4.21953000       0.04272000
C       -5.52511000       1.18907000       4.69042000      -0.03288000
C       -6.72628000       1.30251000       3.95329000       0.08035000
C       -6.70289000       1.84385000       2.61718000      -0.00511000
C       -5.49533000       2.43764000       2.12023000       0.03684000
C       -3.19811000       3.43582000       2.50612000      -0.62432000
C       -5.49874000       0.41865000       5.99154000      -0.60678000
C       -8.01074000       1.93227000       1.86787000      -0.61556000
H       -3.22539000      -0.57128000       0.87936000       0.45621000
H       -4.23765000      -1.36348000      -0.86363000       0.23787000
H       -6.54612000      -2.23786000       0.18707000       0.22486000
H       -4.21266000       0.71367000      -2.16904000       0.22455000
H       -5.59969000       2.23022000      -3.55184000       0.21875000
H       -8.05537000       2.37986000      -3.15155000       0.21783000
H       -9.09352000       1.00009000      -1.35960000       0.21959000
H       -7.70795000      -0.48240000       0.03619000       0.24527000
H       -5.65911000      -3.97138000      -1.16226000       0.21178000
H       -4.35778000      -6.07472000      -1.23527000       0.21178000
H       -2.73298000      -6.59861000       0.58054000       0.21059000
H       -2.41866000      -4.97188000       2.44929000       0.21546000
H       -3.73647000      -2.88901000       2.51358000       0.24706000
H       -3.58785000       4.37305000       2.09559000       0.22970000
H       -2.52436000       3.70634000       3.31910000       0.21781000
H       -2.61820000       2.95144000       1.71296000       0.25313000
H       -5.84454000       1.03963000       6.82902000       0.21956000
H       -6.13527000      -0.46271000       5.91238000       0.25335000
H       -4.49496000       0.06492000       6.22635000       0.22589000
H       -7.89169000       2.31776000       0.85886000       0.22684000
H       -8.49227000       0.95459000       1.80626000       0.25555000
H       -8.68575000       2.60968000       2.40792000       0.22190000
H       -3.75889000       0.77875000       0.25326000       0.43681000
H       -2.00657000       0.98258000       2.70143000       0.23003000
C       -7.32632000      -3.72337000       2.40924000      -0.28886000
C       -6.48924000      -4.58846000       3.11554000      -0.17074000
C       -8.14931000      -4.19259000       1.38705000      -0.19324000
C       -6.45394000      -5.93260000       2.76176000      -0.20477000
H       -5.85891000      -4.20011000       3.90780000       0.24303000
C       -8.10157000      -5.54357000       1.04480000      -0.21732000
H       -8.80584000      -3.50154000       0.86913000       0.24110000
C       -7.23843000      -6.42492000       1.70812000      -0.00333000
H       -5.78387000      -6.60637000       3.28934000       0.22019000
H       -8.73091000      -5.91469000       0.23944000       0.21747000
C       -7.10749000      -7.86326000       1.27111000      -0.60818000
H       -6.20643000      -7.98769000       0.65567000       0.22537000
H       -7.01146000      -8.53908000       2.12834000       0.21786000
H       -7.96617000      -8.18742000       0.67411000       0.21339000
H        1.02860000      -0.00551000      -0.20430000       0.23904000
O        0.21835000       2.24351000      -0.39984000      -0.57884000
C       -0.28153000       3.58574000      -0.47248000      -0.04011000
H       -1.05172000       3.64839000      -1.24998000       0.18574000
H       -0.75031000       3.85246000       0.48127000       0.17776000
O        0.21260000      -2.27301000      -0.32116000      -0.58180000
C       -0.24395000      -3.63993000      -0.22817000      -0.04909000
H        0.21473000      -4.15594000      -1.07778000       0.18048000
H       -1.33026000      -3.67453000      -0.32623000       0.21355000
H        0.42975000      -0.90421000       2.43240000       0.25431000
C        2.22671000       1.05336000       2.20709000      -0.13383000
C        0.42152000       2.51964000       2.81646000      -0.17124000
C        3.11992000       2.11984000       2.22819000      -0.29886000
H        2.59150000       0.06374000       1.94424000       0.22337000
C        1.29646000       3.59347000       2.84356000      -0.25587000
H       -0.61961000       2.68761000       3.05611000       0.21600000
C        2.65302000       3.40663000       2.53501000       0.34792000
H        4.16388000       1.94352000       1.99763000       0.23081000
H        0.95662000       4.59316000       3.09500000       0.23051000
O       -3.31591000      -0.97186000       3.41328000      -0.45079000
C       -8.05834000       0.91483000       4.54319000      -0.61411000
H       -8.61669000       1.84577000       4.72041000       0.22243000
H       -8.64672000       0.28991000       3.87288000       0.25440000
H       -7.96217000       0.38696000       5.48764000       0.23361000
C       -5.44231000       3.05311000       0.74010000      -0.61382000
H       -5.73389000       4.11112000       0.78759000       0.22976000
H       -4.43793000       3.00383000       0.31475000       0.23173000
H       -6.10910000       2.54783000       0.04475000       0.24036000
C       -3.11006000       1.82600000       5.10446000      -0.60520000
H       -3.34995000       2.20757000       6.10315000       0.23203000
H       -2.76827000       0.79336000       5.21233000       0.24279000
H       -2.27437000       2.40450000       4.71569000       0.21871000
C        0.20825000      -4.23256000       1.09796000      -0.61911000
H       -0.09003000      -5.28520000       1.16193000       0.20876000
H        1.29776000      -4.17112000       1.19806000       0.20038000
H       -0.25699000      -3.69114000       1.92625000       0.22535000
C        0.90481000       4.48601000      -0.76986000      -0.60278000
H        0.57661000       5.52825000      -0.85387000       0.20894000
H        1.64592000       4.41826000       0.03236000       0.21080000
H        1.38334000       4.19476000      -1.71064000       0.20860000
O        3.42287000       4.52869000       2.55793000      -0.54511000
C        4.80229000       4.40895000       2.23770000      -0.22147000
H        4.94638000       4.02583000       1.21872000       0.18090000
H        5.21343000       5.41758000       2.30647000       0.20015000
H        5.32535000       3.75448000       2.94771000       0.18003000
