117
R3TS2majorcNMe2.xyz  (col5 = NBO charge)
O       -0.83728000      -2.11899000       3.06751000      -0.51001000
N       -1.37147000      -1.00164000       3.26266000       0.44513000
C       -0.78588000       0.16450000       2.83173000      -0.19877000
C        0.40754000       0.15383000       2.09121000      -0.12230000
C        1.30879000       1.33248000       2.06427000      -0.06846000
O       -1.90123000      -1.45608000       0.04468000      -0.68223000
C       -0.69129000      -1.27963000      -0.01666000       0.80881000
C        0.00287000       0.00073000       0.00210000      -0.47805000
C       -0.72113000       1.23030000      -0.23455000       0.80846000
O       -1.89996000       1.48396000       0.04402000      -0.70940000
Ru      -5.16658000       0.59080000       2.85929000       0.24556000
S       -7.49675000      -1.60341000       3.10383000       2.25138000
O       -7.41639000      -1.31357000       4.54433000      -0.93979000
O       -8.58980000      -0.97616000       2.31963000      -0.96562000
N       -3.96894000      -0.13515000       1.27584000      -0.77503000
N       -6.00808000      -1.17065000       2.43397000      -0.84596000
C       -4.80193000      -0.92156000       0.32069000      -0.03071000
C       -5.64275000      -1.88961000       1.17721000      -0.05076000
C       -5.56693000       0.02154000      -0.59023000      -0.03924000
C       -4.83111000       0.69569000      -1.57752000      -0.20408000
C       -5.45659000       1.58955000      -2.44514000      -0.21135000
C       -6.83305000       1.81478000      -2.34457000      -0.22131000
C       -7.57100000       1.14398000      -1.36778000      -0.21519000
C       -6.94228000       0.25611000      -0.48874000      -0.22206000
C       -4.87532000      -3.18871000       1.41074000      -0.03503000
C       -5.09350000      -4.26794000       0.54592000      -0.21583000
C       -4.36290000      -5.44885000       0.68239000      -0.21539000
C       -3.39431000      -5.55968000       1.68424000      -0.22884000
C       -3.16745000      -4.48260000       2.54380000      -0.20253000
C       -3.90853000      -3.30715000       2.41351000      -0.21782000
C       -4.16600000       2.70554000       3.15919000       0.00612000
C       -4.22455000       2.04722000       4.41132000       0.02871000
C       -5.49048000       1.50496000       4.88159000       0.01507000
C       -6.68700000       1.76678000       4.16522000       0.02242000
C       -6.59164000       2.26379000       2.81680000       0.04782000
C       -5.31897000       2.69875000       2.29762000       0.01109000
C       -2.90086000       3.34575000       2.63236000      -0.62499000
C       -5.52155000       0.72600000       6.17638000      -0.61109000
C       -7.87010000       2.39500000       2.02352000      -0.61613000
H       -3.30601000      -0.78216000       1.70916000       0.43676000
H       -4.12024000      -1.50984000      -0.29809000       0.25470000
H       -6.54695000      -2.13910000       0.61057000       0.22847000
H       -3.75913000       0.52768000      -1.64500000       0.23117000
H       -4.87225000       2.10607000      -3.20216000       0.21778000
H       -7.32538000       2.50571000      -3.02400000       0.21755000
H       -8.64073000       1.31507000      -1.27793000       0.21938000
H       -7.52934000      -0.22774000       0.28478000       0.24159000
H       -5.85209000      -4.19022000      -0.22927000       0.21344000
H       -4.55206000      -6.28128000       0.00845000       0.21173000
H       -2.81566000      -6.47493000       1.78590000       0.21189000
H       -2.39679000      -4.52947000       3.30719000       0.22468000
H       -3.71478000      -2.48925000       3.09819000       0.24738000
H       -3.13763000       4.31762000       2.18694000       0.22702000
H       -2.17311000       3.52342000       3.42328000       0.21894000
H       -2.42721000       2.73947000       1.85441000       0.25677000
H       -5.65203000       1.39779000       7.03567000       0.22349000
H       -6.32944000      -0.00368000       6.16317000       0.25118000
H       -4.59155000       0.17284000       6.31751000       0.23356000
H       -7.69711000       2.70507000       0.99623000       0.22808000
H       -8.41203000       1.44628000       2.00572000       0.25354000
H       -8.51376000       3.14520000       2.50100000       0.22708000
H       -3.35132000       0.51263000       0.76906000       0.45806000
H       -1.35610000       1.04543000       3.06887000       0.21575000
C       -7.60945000      -3.35792000       2.89380000      -0.35705000
C       -6.83310000      -4.18602000       3.71083000      -0.14986000
C       -8.34907000      -3.90069000       1.84245000      -0.16892000
C       -6.76861000      -5.54428000       3.45677000      -0.26630000
H       -6.26000000      -3.75552000       4.52459000       0.24364000
C       -8.28869000      -5.26324000       1.58395000      -0.28222000
H       -8.95805000      -3.24877000       1.22452000       0.24028000
C       -7.46800000      -6.11665000       2.36404000       0.23601000
H       -6.13561000      -6.15563000       4.08602000       0.22925000
H       -8.86171000      -5.65714000       0.75406000       0.22535000
H        1.02137000      -0.01363000      -0.36706000       0.25092000
O        0.09770000       2.19616000      -0.72840000      -0.55346000
C       -0.47063000       3.50361000      -0.83414000      -0.22189000
H       -1.36827000       3.49364000      -1.45992000       0.18859000
H       -0.72973000       3.89393000       0.15507000       0.18235000
H        0.30550000       4.12326000      -1.28555000       0.19432000
O        0.18875000      -2.31069000      -0.04342000      -0.56482000
C       -0.40252000      -3.60111000       0.18605000      -0.23015000
H       -1.14734000      -3.83234000      -0.58104000       0.18675000
H        0.42548000      -4.31094000       0.14392000       0.18450000
H       -0.88334000      -3.61610000       1.16650000       0.21176000
H        0.91265000      -0.80795000       2.07885000       0.25738000
C        2.65286000       1.15417000       1.69736000      -0.18500000
C        0.87476000       2.63073000       2.37571000      -0.20692000
C        3.53250000       2.23298000       1.64028000      -0.20625000
H        3.00364000       0.15540000       1.44843000       0.22038000
C        1.75165000       3.71286000       2.31637000      -0.20917000
H       -0.15531000       2.79960000       2.66509000       0.21365000
C        3.08463000       3.52043000       1.94698000      -0.21042000
H        4.56864000       2.06914000       1.35635000       0.21968000
H        1.39254000       4.70915000       2.56215000       0.21607000
H        3.76832000       4.36380000       1.90200000       0.21803000
O       -2.48350000      -0.90794000       3.89253000      -0.54459000
C       -8.05631000       1.53108000       4.75341000      -0.60464000
H       -8.55703000       2.50506000       4.84299000       0.21996000
H       -8.67549000       0.88826000       4.12762000       0.24781000
H       -8.01163000       1.08084000       5.74199000       0.23103000
C       -5.18103000       3.22712000       0.88768000      -0.61272000
H       -5.31035000       4.31837000       0.87542000       0.22540000
H       -4.20004000       2.99579000       0.46917000       0.23804000
H       -5.91607000       2.78974000       0.21515000       0.23800000
C       -3.01102000       1.87012000       5.29429000      -0.61887000
H       -3.25218000       2.12388000       6.33131000       0.22416000
H       -2.67171000       0.83004000       5.25010000       0.26890000
H       -2.17385000       2.49628000       4.98817000       0.21698000
N       -7.34378000      -7.46024000       2.06919000      -0.49392000
C       -7.90920000      -7.97156000       0.83094000      -0.36431000
C       -6.29307000      -8.23332000       2.71964000      -0.36675000
H       -7.71779000      -9.04399000       0.76422000       0.20904000
H       -8.99598000      -7.82905000       0.80646000       0.20093000
H       -7.47911000      -7.48562000      -0.05926000       0.18990000
H       -5.29869000      -7.79373000       2.55525000       0.19862000
H       -6.46624000      -8.30318000       3.80026000       0.20041000
H       -6.29665000      -9.24900000       2.32014000       0.20753000
