119
R3TS2minorsNMe2cNO2.xyz  (col5 = NBO charge)
O       -2.98995000      -1.87775000      -2.94675000      -0.43428000
N       -1.73734000      -1.55997000      -2.76172000       0.47129000
C       -1.37020000      -0.25159000      -2.62628000      -0.16617000
C       -0.04801000       0.07865000      -2.31771000      -0.07165000
C        0.50384000       1.41429000      -2.53211000      -0.18804000
O       -1.88119000       1.50316000      -0.06538000      -0.70654000
C       -0.69467000       1.25677000       0.15567000       0.79135000
C        0.00132000       0.00053000      -0.01222000      -0.50301000
C       -0.67232000      -1.26268000       0.11778000       0.79379000
O       -1.89462000      -1.45182000       0.04682000      -0.71732000
Ru      -4.75448000      -0.70513000      -2.73162000       0.15783000
S       -5.06916000      -3.85356000      -1.96446000       2.25830000
O       -5.11672000      -3.88246000      -3.43906000      -0.94488000
O       -3.92371000      -4.44060000      -1.24749000      -0.94012000
N       -4.15694000      -0.05227000      -0.81249000      -0.74125000
N       -5.44088000      -2.31452000      -1.46847000      -0.87877000
C       -5.17348000      -0.55146000       0.15024000      -0.01993000
C       -5.15305000      -2.08298000      -0.02359000      -0.06291000
C       -4.99701000      -0.05798000       1.57272000      -0.05328000
C       -6.12741000       0.37907000       2.27612000      -0.20116000
C       -6.02440000       0.81345000       3.59756000      -0.21242000
C       -4.78012000       0.82397000       4.23106000      -0.21396000
C       -3.64835000       0.39340000       3.53533000      -0.20633000
C       -3.75241000      -0.04874000       2.21569000      -0.20560000
C       -6.14486000      -2.73675000       0.92232000      -0.03397000
C       -5.68198000      -3.43247000       2.04283000      -0.20434000
C       -6.57962000      -4.02641000       2.93248000      -0.20767000
C       -7.95411000      -3.93081000       2.70807000      -0.21787000
C       -8.42499000      -3.22571000       1.59612000      -0.21170000
C       -7.52513000      -2.63008000       0.71430000      -0.21960000
C       -4.86479000       1.36061000      -3.70931000       0.00151000
C       -6.09198000       1.04148000      -2.99826000       0.01544000
C       -6.82671000      -0.13480000      -3.33473000       0.00885000
C       -6.36853000      -0.97262000      -4.42628000       0.04738000
C       -5.11064000      -0.73741000      -5.01973000       0.00636000
C       -4.34037000       0.44061000      -4.65410000       0.01921000
C       -4.15491000       2.65475000      -3.35886000      -0.60626000
C       -8.08811000      -0.54156000      -2.60940000      -0.60167000
C       -4.58125000      -1.75299000      -6.00708000      -0.61114000
H       -4.02548000       0.95331000      -0.71183000       0.41593000
H       -6.14840000      -0.20147000      -0.20393000       0.21339000
H       -4.14258000      -2.42608000       0.22925000       0.24760000
H       -7.10016000       0.35819000       1.79002000       0.21249000
H       -6.91314000       1.14238000       4.12972000       0.21642000
H       -4.69376000       1.16479000       5.25957000       0.21575000
H       -2.67588000       0.39888000       4.02096000       0.21676000
H       -2.87160000      -0.38310000       1.68313000       0.24468000
H       -4.61120000      -3.51419000       2.21023000       0.22385000
H       -6.20478000      -4.57121000       3.79498000       0.21798000
H       -8.65468000      -4.40617000       3.38918000       0.21850000
H       -9.49363000      -3.15312000       1.41074000       0.21574000
H       -7.88613000      -2.10812000      -0.16541000       0.21777000
H       -4.87296000       3.47829000      -3.30174000       0.22975000
H       -3.64510000       2.60024000      -2.38911000       0.23113000
H       -3.41349000       2.93212000      -4.10716000       0.22594000
H       -8.97597000      -0.34624000      -3.22370000       0.22863000
H       -8.05142000      -1.60727000      -2.37412000       0.23612000
H       -8.21751000      -0.01615000      -1.66439000       0.21954000
H       -3.60810000      -1.48233000      -6.41137000       0.22418000
H       -4.48308000      -2.72275000      -5.50843000       0.26305000
H       -5.26966000      -1.86863000      -6.85252000       0.22194000
H       -3.23243000      -0.44764000      -0.56446000       0.47318000
H       -2.18347000       0.45168000      -2.63591000       0.22418000
C       -6.51303000      -4.81977000      -1.43447000      -0.20970000
C       -7.73040000      -4.65224000      -2.09949000      -0.20597000
C       -6.40126000      -5.67609000      -0.33997000      -0.19337000
C       -8.86408000      -5.30944000      -1.63727000      -0.18725000
H       -7.78555000      -4.00701000      -2.96706000       0.23815000
C       -7.53225000      -6.33407000       0.13590000      -0.17181000
H       -5.44115000      -5.79166000       0.14746000       0.25658000
C       -8.74830000      -6.12913000      -0.51283000       0.06152000
H       -9.82741000      -5.19419000      -2.11819000       0.25105000
H       -7.48904000      -6.97877000       1.00408000       0.25563000
H        1.06465000       0.00834000       0.19223000       0.24330000
O        0.17976000      -2.30124000       0.25818000      -0.55849000
C       -0.43630000      -3.60160000       0.18024000      -0.22819000
H       -1.13735000      -3.74595000       1.00774000       0.18192000
H       -0.97269000      -3.71156000      -0.76598000       0.21752000
H        0.38863000      -4.31224000       0.24987000       0.18467000
O        0.17402000       2.24276000       0.52372000      -0.56459000
C       -0.39232000       3.55023000       0.63372000      -0.22264000
H       -1.21088000       3.56241000       1.36045000       0.18656000
H        0.42335000       4.19460000       0.96737000       0.18786000
H       -0.76805000       3.89359000      -0.33437000       0.18500000
C        1.88997000       1.62431000      -2.42187000      -0.13494000
C       -0.28720000       2.53922000      -2.82180000      -0.06537000
C        2.46125000       2.87486000      -2.59025000      -0.27644000
H        2.53244000       0.78093000      -2.18050000       0.21983000
C        0.26535000       3.79998000      -2.99645000      -0.32355000
H       -1.36232000       2.43554000      -2.89707000       0.20250000
C        1.66215000       4.00739000      -2.88617000       0.22386000
H        3.53452000       2.97234000      -2.48337000       0.22476000
H       -0.39749000       4.62823000      -3.21667000       0.22001000
H        0.65704000      -0.74507000      -2.34580000       0.25720000
O       -0.90837000      -2.48334000      -2.78349000      -0.45341000
C       -7.19723000      -2.13035000      -4.92766000      -0.62546000
H       -7.34868000      -2.03199000      -6.00916000       0.22756000
H       -6.68139000      -3.07513000      -4.74210000       0.26739000
H       -8.18296000      -2.16958000      -4.46574000       0.21875000
C       -6.56984000       2.01766000      -1.94447000      -0.59817000
H       -5.75380000       2.35897000      -1.30222000       0.22482000
H       -6.99872000       2.90638000      -2.42503000       0.23324000
H       -7.33579000       1.59910000      -1.29498000       0.22497000
C       -3.00635000       0.65565000      -5.33431000      -0.60432000
H       -2.38575000      -0.23846000      -5.24847000       0.24075000
H       -3.15542000       0.86547000      -6.40080000       0.23091000
H       -2.43098000       1.47309000      -4.90471000       0.22346000
N        2.22194000       5.25951000      -3.06527000      -0.49301000
C        3.63400000       5.46136000      -2.78236000      -0.36503000
C        1.35554000       6.42168000      -3.16850000      -0.36421000
H        3.89759000       6.49986000      -2.99041000       0.20884000
H        3.88860000       5.24334000      -1.73358000       0.19192000
H        4.25809000       4.82682000      -3.42323000       0.20102000
H        0.69782000       6.34861000      -4.04377000       0.19848000
H        0.72286000       6.55409000      -2.27670000       0.18998000
H        1.96679000       7.31760000      -3.29005000       0.20998000
N       -9.95495000      -6.78117000       0.01608000       0.50294000
O       -9.83552000      -7.48223000       1.02121000      -0.39066000
O      -11.01952000      -6.58145000      -0.57172000      -0.39730000
