118
R3TS2majorsCNcNMe2.xyz  (col5 = NBO charge)
O       -0.84777000      -2.15418000       3.05677000      -0.50489000
N       -1.40322000      -1.04733000       3.24503000       0.44885000
C       -0.82472000       0.13004000       2.82647000      -0.20147000
C        0.37381000       0.13289000       2.09666000      -0.13851000
C        1.25678000       1.32418000       2.07616000      -0.02705000
O       -1.90096000      -1.45455000       0.04814000      -0.67772000
C       -0.69176000      -1.28114000      -0.02152000       0.80837000
C        0.00343000       0.00046000       0.00426000      -0.47047000
C       -0.72118000       1.23200000      -0.23302000       0.80651000
O       -1.90027000       1.48249000       0.04174000      -0.70386000
Ru      -5.23875000       0.55352000       2.79728000       0.24386000
S       -7.55776000      -1.65878000       2.97184000       2.25084000
O       -7.49910000      -1.39381000       4.41795000      -0.93915000
O       -8.63924000      -1.02068000       2.18117000      -0.96439000
N       -4.00342000      -0.14320000       1.22884000      -0.77434000
N       -6.05975000      -1.20359000       2.33170000      -0.84319000
C       -4.81631000      -0.91713000       0.24611000      -0.03001000
C       -5.66564000      -1.90335000       1.07293000      -0.05107000
C       -5.57233000       0.03834000      -0.65975000      -0.03998000
C       -4.82584000       0.73360000      -1.62404000      -0.20463000
C       -5.44300000       1.63978000      -2.48493000      -0.21099000
C       -6.82186000       1.85641000      -2.40066000      -0.22056000
C       -7.57054000       1.16460000      -1.44693000      -0.21460000
C       -6.95032000       0.26434000      -0.57457000      -0.22184000
C       -4.89348000      -3.20026000       1.30305000      -0.03502000
C       -5.08091000      -4.26576000       0.41435000      -0.21549000
C       -4.34379000      -5.44292000       0.54859000      -0.21480000
C       -3.39951000      -5.56363000       1.57228000      -0.22833000
C       -3.20348000      -4.50032000       2.45624000      -0.20267000
C       -3.95137000      -3.32904000       2.32766000      -0.21781000
C       -4.24861000       2.66249000       3.14788000       0.00595000
C       -4.32074000       1.98099000       4.38725000       0.02763000
C       -5.59090000       1.42729000       4.83151000       0.01751000
C       -6.77960000       1.69906000       4.10499000       0.02164000
C       -6.66891000       2.22400000       2.76868000       0.04949000
C       -5.39153000       2.67276000       2.27349000       0.01019000
C       -2.97639000       3.31034000       2.64662000      -0.62382000
C       -5.63637000       0.62397000       6.11075000      -0.61145000
C       -7.93715000       2.36266000       1.96041000      -0.61618000
H       -3.34566000      -0.79419000       1.66431000       0.43689000
H       -4.12194000      -1.49167000      -0.37179000       0.25352000
H       -6.55729000      -2.15080000       0.48603000       0.22895000
H       -3.75224000       0.57158000      -1.68013000       0.23002000
H       -4.85045000       2.17213000      -3.22435000       0.21804000
H       -7.30772000       2.55670000      -3.07504000       0.21807000
H       -8.64237000       1.32843000      -1.37019000       0.21984000
H       -7.54689000      -0.23616000       0.18084000       0.24177000
H       -5.82055000      -4.18058000      -0.37813000       0.21369000
H       -4.50925000      -6.26495000      -0.14398000       0.21215000
H       -2.81616000      -6.47597000       1.67267000       0.21225000
H       -2.45224000      -4.55525000       3.23825000       0.22465000
H       -3.78331000      -2.52219000       3.03147000       0.24636000
H       -3.20613000       4.29029000       2.21577000       0.22810000
H       -2.25846000       3.47361000       3.44976000       0.21814000
H       -2.49402000       2.71711000       1.86377000       0.25475000
H       -5.78563000       1.27897000       6.97983000       0.22420000
H       -6.43881000      -0.11071000       6.07105000       0.25159000
H       -4.70491000       0.07471000       6.25709000       0.23333000
H       -7.75225000       2.69321000       0.94163000       0.22810000
H       -8.47267000       1.41104000       1.91731000       0.25363000
H       -8.59211000       3.09956000       2.44302000       0.22783000
H       -3.38065000       0.51395000       0.74232000       0.45642000
H       -1.41287000       1.00208000       3.05289000       0.21696000
C       -7.65715000      -3.40890000       2.72762000      -0.35863000
C       -6.89483000      -4.24851000       3.54637000      -0.14950000
C       -8.36925000      -3.93524000       1.64892000      -0.16879000
C       -6.81589000      -5.60096000       3.26731000      -0.26628000
H       -6.34419000      -3.83091000       4.38207000       0.24350000
C       -8.29447000      -5.29188000       1.36538000      -0.28222000
H       -8.96862000      -3.27512000       1.03028000       0.24035000
C       -7.48602000      -6.15576000       2.14723000       0.23681000
H       -6.19516000      -6.22137000       3.89991000       0.22937000
H       -8.84650000      -5.67297000       0.51554000       0.22559000
H        1.02160000      -0.01376000      -0.36656000       0.25061000
O        0.10060000       2.19925000      -0.71848000      -0.55460000
C       -0.47498000       3.50307000      -0.84585000      -0.22268000
H       -1.35570000       3.48139000      -1.49463000       0.19038000
H       -0.76478000       3.89601000       0.13374000       0.18195000
H        0.30756000       4.12618000      -1.28064000       0.19638000
O        0.18746000      -2.31071000      -0.06063000      -0.56357000
C       -0.40312000      -3.60458000       0.15726000      -0.23051000
H       -1.15329000      -3.82519000      -0.60745000       0.18817000
H        0.42438000      -4.31370000       0.10077000       0.18568000
H       -0.87746000      -3.63047000       1.14060000       0.21191000
H        0.89333000      -0.82128000       2.08869000       0.26078000
C        2.60350000       1.17203000       1.70253000      -0.18512000
C        0.79918000       2.61426000       2.39291000      -0.20707000
C        3.46208000       2.26102000       1.63389000      -0.14430000
H        2.97382000       0.18154000       1.45216000       0.23005000
C        1.64514000       3.71413000       2.32638000      -0.14649000
H       -0.23083000       2.76375000       2.69009000       0.22402000
C        2.98606000       3.54768000       1.94145000      -0.19828000
H        4.49892000       2.12725000       1.34270000       0.23585000
H        1.27654000       4.70550000       2.57077000       0.23225000
O       -2.52499000      -0.96844000       3.85301000      -0.53728000
C       -8.15524000       1.44561000       4.67057000      -0.60471000
H       -8.66222000       2.41505000       4.77225000       0.22045000
H       -8.76269000       0.81185000       4.02431000       0.24782000
H       -8.12132000       0.97653000       5.65076000       0.23127000
C       -5.23891000       3.22921000       0.87592000      -0.61198000
H       -5.37440000       4.31967000       0.88286000       0.22615000
H       -4.25157000       3.01168000       0.46523000       0.23653000
H       -5.96243000       2.80072000       0.18544000       0.23828000
C       -3.11767000       1.79147000       5.28222000      -0.61818000
H       -3.37294000       2.02540000       6.32042000       0.22504000
H       -2.77260000       0.75412000       5.22449000       0.26791000
H       -2.27956000       2.42718000       4.99908000       0.21602000
C        3.85798000       4.68118000       1.86369000       0.32478000
N        4.56172000       5.60564000       1.79810000      -0.36705000
N       -7.34591000      -7.49151000       1.82871000      -0.49303000
C       -7.88784000      -7.98524000       0.57285000      -0.36435000
C       -6.30953000      -8.27362000       2.49122000      -0.36670000
H       -7.68767000      -9.05492000       0.49068000       0.20935000
H       -8.97506000      -7.84957000       0.53297000       0.20110000
H       -7.44655000      -7.48099000      -0.30143000       0.19007000
H       -5.31361000      -7.82559000       2.36325000       0.19879000
H       -6.51145000      -8.36778000       3.56503000       0.20041000
H       -6.29632000      -9.28024000       2.06978000       0.20785000
