119
R3TS2majorsNO2cNMe2.xyz  (col5 = NBO charge)
O       -0.85432000      -2.15895000       3.05697000      -0.50375000
N       -1.40984000      -1.05235000       3.24532000       0.44945000
C       -0.82999000       0.12542000       2.82772000      -0.20151000
C        0.36860000       0.12657000       2.09862000      -0.14183000
C        1.25187000       1.31712000       2.07716000      -0.01768000
O       -1.90111000      -1.45344000       0.04797000      -0.67695000
C       -0.69185000      -1.28122000      -0.02152000       0.80824000
C        0.00398000       0.00051000       0.00468000      -0.46896000
C       -0.72148000       1.23195000      -0.23365000       0.80595000
O       -1.90028000       1.48147000       0.04211000      -0.70269000
Ru      -5.24812000       0.55024000       2.79212000       0.24312000
S       -7.56643000      -1.66372000       2.95784000       2.25078000
O       -7.51070000      -1.40107000       4.40446000      -0.93906000
O       -8.64642000      -1.02480000       2.16590000      -0.96422000
N       -4.00815000      -0.14356000       1.22552000      -0.77410000
N       -6.06722000      -1.20614000       2.32147000      -0.84292000
C       -4.81873000      -0.91592000       0.23958000      -0.02993000
C       -5.66939000      -1.90393000       1.06287000      -0.05110000
C       -5.57342000       0.04101000      -0.66585000      -0.04013000
C       -4.82572000       0.73766000      -1.62817000      -0.20461000
C       -5.44177000       1.64518000      -2.48848000      -0.21092000
C       -6.82073000       1.86167000      -2.40561000      -0.22041000
C       -7.57060000       1.16849000      -1.45380000      -0.21458000
C       -6.95149000       0.26700000      -0.58195000      -0.22185000
C       -4.89691000      -3.20067000       1.29296000      -0.03500000
C       -5.08028000      -4.26436000       0.40124000      -0.21549000
C       -4.34265000      -5.44119000       0.53545000      -0.21464000
C       -3.40192000      -5.56344000       1.56223000      -0.22821000
C       -3.20998000      -4.50201000       2.44932000      -0.20271000
C       -3.95837000      -3.33105000       2.32065000      -0.21793000
C       -4.25943000       2.65844000       3.14793000       0.00599000
C       -4.33362000       1.97535000       4.38631000       0.02755000
C       -5.60424000       1.42014000       4.82721000       0.01777000
C       -6.79187000       1.69256000       4.09906000       0.02163000
C       -6.67913000       2.22052000       2.76420000       0.04984000
C       -5.40109000       2.67052000       2.27192000       0.01026000
C       -2.98633000       3.30627000       2.64893000      -0.62386000
C       -5.65184000       0.61447000       6.10488000      -0.61151000
C       -7.94608000       2.36052000       1.95410000      -0.61617000
H       -3.35125000      -0.79514000       1.66133000       0.43662000
H       -4.12296000      -1.48912000      -0.37806000       0.25339000
H       -6.55932000      -2.15111000       0.47326000       0.22902000
H       -3.75208000       0.57553000      -1.68340000       0.22986000
H       -4.84833000       2.17856000      -3.22642000       0.21807000
H       -7.30573000       2.56293000      -3.07958000       0.21815000
H       -8.64252000       1.33221000      -1.37817000       0.21990000
H       -7.54894000      -0.23451000       0.17209000       0.24185000
H       -5.81718000      -4.17802000      -0.39368000       0.21374000
H       -4.50499000      -6.26180000      -0.15952000       0.21223000
H       -2.81825000      -6.47555000       1.66269000       0.21233000
H       -2.46165000      -4.55830000       3.23400000       0.22467000
H       -3.79381000      -2.52579000       3.02702000       0.24612000
H       -3.21424000       4.28923000       2.22396000       0.22848000
H       -2.26654000       3.46328000       3.45162000       0.21828000
H       -2.50686000       2.71617000       1.86196000       0.25427000
H       -5.80542000       1.26763000       6.97457000       0.22435000
H       -6.45263000      -0.12181000       6.06123000       0.25165000
H       -4.71969000       0.06701000       6.25338000       0.23326000
H       -7.75960000       2.69318000       0.93631000       0.22808000
H       -8.48165000       1.40905000       1.90815000       0.25359000
H       -8.60184000       3.09641000       2.43716000       0.22801000
H       -3.38476000       0.51450000       0.74126000       0.45620000
H       -1.41685000       0.99807000       3.05528000       0.21736000
C       -7.66407000      -3.41342000       2.71037000      -0.35880000
C       -6.90366000      -4.25405000       3.52986000      -0.14951000
C       -8.37248000      -3.93822000       1.62846000      -0.16886000
C       -6.82257000      -5.60582000       3.24822000      -0.26613000
H       -6.35606000      -3.83763000       4.36815000       0.24347000
C       -8.29573000      -5.29422000       1.34247000      -0.28224000
H       -8.97057000      -3.27739000       1.00933000       0.24038000
C       -7.48871000      -6.15894000       2.12492000       0.23690000
H       -6.20336000      -6.22700000       3.88156000       0.22938000
H       -8.84492000      -5.67408000       0.49024000       0.22566000
H        1.02232000      -0.01379000      -0.36588000       0.25080000
O        0.09895000       2.19891000      -0.72151000      -0.55488000
C       -0.47967000       3.50123000      -0.85482000      -0.22297000
H       -1.35911000       3.47452000      -1.50509000       0.19080000
H       -0.77227000       3.89732000       0.12259000       0.18225000
H        0.30196000       4.12459000      -1.29076000       0.19648000
O        0.18675000      -2.31092000      -0.06040000      -0.56329000
C       -0.40476000      -3.60494000       0.15523000      -0.23056000
H       -1.15338000      -3.82444000      -0.61129000       0.18833000
H        0.42265000      -4.31418000       0.09978000       0.18598000
H       -0.88120000      -3.63150000       1.13752000       0.21192000
H        0.88746000      -0.82791000       2.09083000       0.26144000
C        2.60371000       1.16010000       1.72091000      -0.18287000
C        0.78806000       2.61054000       2.37559000      -0.20581000
C        3.46402000       2.24819000       1.65088000      -0.17668000
H        2.97698000       0.16731000       1.48542000       0.23158000
C        1.63236000       3.71161000       2.30695000      -0.17880000
H       -0.24576000       2.76183000       2.65740000       0.22548000
C        2.96376000       3.51801000       1.94060000       0.05826000
H        4.50524000       2.13350000       1.37620000       0.25349000
H        1.28054000       4.71129000       2.53020000       0.25033000
O       -2.53179000      -0.97294000       3.85164000      -0.53550000
C       -8.16830000       1.43699000       4.66177000      -0.60474000
H       -8.67598000       2.40590000       4.76494000       0.22056000
H       -8.77427000       0.80441000       4.01297000       0.24781000
H       -8.13577000       0.96553000       5.64088000       0.23134000
C       -5.24666000       3.23033000       0.87590000      -0.61183000
H       -5.38235000       4.32073000       0.88539000       0.22636000
H       -4.25870000       3.01425000       0.46605000       0.23637000
H       -5.96898000       2.80341000       0.18320000       0.23818000
C       -3.13225000       1.78577000       5.28362000      -0.61805000
H       -3.39025000       2.01767000       6.32159000       0.22519000
H       -2.78549000       0.74907000       5.22529000       0.26754000
H       -2.29454000       2.42339000       5.00363000       0.21611000
N        3.85840000       4.67838000       1.85766000       0.50096000
O        5.03308000       4.47662000       1.54740000      -0.39401000
O        3.38134000       5.78867000       2.10043000      -0.39884000
N       -7.34615000      -7.49378000       1.80397000      -0.49294000
C       -7.88455000      -7.98567000       0.54585000      -0.36436000
C       -6.31040000      -8.27602000       2.46737000      -0.36672000
H       -7.68328000      -9.05503000       0.46222000       0.20939000
H       -8.97177000      -7.85082000       0.50353000       0.20119000
H       -7.44150000      -7.47944000      -0.32640000       0.19003000
H       -5.31480000      -7.82623000       2.34300000       0.19879000
H       -6.51497000      -8.37303000       3.54042000       0.20042000
H       -6.29464000      -9.28160000       2.04357000       0.20791000
