123
R3TS20minorcNMe2.xyz  (col5 = NBO charge)
O       -3.14171000      -1.86834000      -2.83908000      -0.40294000
N       -1.88483000      -1.58326000      -2.74170000       0.48634000
C       -1.48171000      -0.26721000      -2.62806000      -0.15626000
C       -0.15169000       0.03249000      -2.40096000      -0.07673000
C        0.42764000       1.36463000      -2.60312000      -0.09517000
O       -1.88475000       1.49569000      -0.05768000      -0.71613000
C       -0.68949000       1.25894000       0.13779000       0.78425000
C        0.00092000      -0.00001000       0.00800000      -0.51442000
C       -0.67133000      -1.26132000       0.10477000       0.78619000
O       -1.89684000      -1.44734000       0.04980000      -0.72291000
Ru      -4.88747000      -0.66028000      -2.54382000       0.15555000
S       -5.23769000      -3.81399000      -1.82158000       2.25239000
O       -5.35459000      -3.79095000      -3.29524000      -0.95494000
O       -4.03733000      -4.39620000      -1.19185000      -0.94884000
N       -4.19549000      -0.04354000      -0.64735000      -0.74125000
N       -5.56126000      -2.26254000      -1.28030000      -0.87349000
C       -5.17253000      -0.53870000       0.35521000      -0.01961000
C       -5.20072000      -2.06811000       0.15069000      -0.06200000
C       -4.91296000      -0.07315000       1.77486000      -0.05087000
C       -6.00340000       0.32578000       2.55980000      -0.20126000
C       -5.82333000       0.73247000       3.88151000      -0.21319000
C       -4.54105000       0.75474000       4.43421000      -0.21575000
C       -3.44904000       0.36291000       3.65723000      -0.20672000
C       -3.63008000      -0.05238000       2.33689000      -0.20661000
C       -6.16553000      -2.69750000       1.14364000      -0.02501000
C       -5.66812000      -3.34333000       2.27942000      -0.20488000
C       -6.53644000      -3.86615000       3.23966000      -0.20772000
C       -7.91716000      -3.75204000       3.07004000      -0.22475000
C       -8.42216000      -3.11043000       1.93530000      -0.20999000
C       -7.55094000      -2.58295000       0.98409000      -0.21616000
C       -5.00843000       1.42922000      -3.48907000       0.00024000
C       -6.19892000       1.10774000      -2.71856000       0.01512000
C       -6.96915000      -0.05091000      -3.04273000       0.01155000
C       -6.58430000      -0.86909000      -4.17500000       0.05126000
C       -5.34604000      -0.64796000      -4.81247000       0.00190000
C       -4.54738000       0.52083000      -4.47508000       0.01490000
C       -4.26101000       2.70414000      -3.14519000      -0.60657000
C       -8.19801000      -0.45506000      -2.26296000      -0.60193000
C       -4.87674000      -1.65540000      -5.83729000      -0.61049000
H       -4.04132000       0.95817000      -0.54114000       0.41645000
H       -6.15624000      -0.16186000       0.05743000       0.21274000
H       -4.18911000      -2.44272000       0.35327000       0.24398000
H       -7.00495000       0.29274000       2.13734000       0.21335000
H       -6.68206000       1.03137000       4.47709000       0.21541000
H       -4.39470000       1.07520000       5.46256000       0.21495000
H       -2.44712000       0.37817000       4.07858000       0.21659000
H       -2.77877000      -0.35698000       1.74234000       0.24486000
H       -4.59277000      -3.43199000       2.40987000       0.22273000
H       -6.13344000      -4.36487000       4.11742000       0.21523000
H       -8.59610000      -4.16199000       3.81393000       0.21181000
H       -9.49633000      -3.03051000       1.78678000       0.21146000
H       -7.93846000      -2.10983000       0.08910000       0.21921000
H       -4.96149000       3.53435000      -3.01584000       0.22949000
H       -3.69028000       2.61157000      -2.21262000       0.23303000
H       -3.56562000       2.99775000      -3.93079000       0.22453000
H       -9.11390000      -0.18925000      -2.80614000       0.22678000
H       -8.18878000      -1.53337000      -2.09296000       0.23904000
H       -8.24430000       0.01522000      -1.28167000       0.21942000
H       -3.84999000      -1.48452000      -6.15453000       0.22452000
H       -4.92745000      -2.65943000      -5.40753000       0.26096000
H       -5.51136000      -1.62450000      -6.73246000       0.22140000
H       -3.26568000      -0.45549000      -0.45076000       0.47307000
H       -2.28631000       0.44597000      -2.59771000       0.23001000
C       -6.63059000      -4.77050000      -1.22294000      -0.31437000
C       -7.90059000      -4.58000000      -1.76670000      -0.17902000
C       -6.46861000      -5.62899000      -0.13705000      -0.16655000
C       -9.00664000      -5.20852000      -1.20981000      -0.27975000
H       -8.02902000      -3.92687000      -2.62252000       0.22393000
C       -7.56771000      -6.26276000       0.42621000      -0.26916000
H       -5.47910000      -5.77071000       0.28190000       0.24356000
C       -8.87064000      -6.05302000      -0.08098000       0.21686000
H       -9.98014000      -5.02821000      -1.64930000       0.21982000
H       -7.40752000      -6.89857000       1.28736000       0.22426000
H        1.07062000       0.00735000       0.17303000       0.24011000
O        0.17890000      -2.30896000       0.19058000      -0.57368000
C       -0.43805000      -3.61781000       0.11137000      -0.05190000
H       -1.04628000      -3.77591000       1.00939000       0.18041000
H       -1.10587000      -3.65008000      -0.75375000       0.21819000
O        0.18816000       2.26061000       0.43743000      -0.57927000
C       -0.36494000       3.58214000       0.53269000      -0.04098000
H       -1.06122000       3.62161000       1.37933000       0.18355000
H       -0.93404000       3.80554000      -0.37492000       0.18402000
C        1.82468000       1.51672000      -2.55032000      -0.16333000
C       -0.35696000       2.50370000      -2.85798000      -0.19379000
C        2.41870000       2.75958000      -2.74872000      -0.20995000
H        2.44193000       0.64691000      -2.34085000       0.22231000
C        0.23649000       3.74849000      -3.05556000      -0.21476000
H       -1.43564000       2.41877000      -2.88851000       0.21625000
C        1.62629000       3.88325000      -3.00314000      -0.20156000
H        3.50011000       2.85402000      -2.70377000       0.22183000
H       -0.38778000       4.61680000      -3.24993000       0.21817000
H        2.08795000       4.85419000      -3.16029000       0.21998000
H        0.53758000      -0.80427000      -2.42398000       0.25723000
O       -1.06905000      -2.50981000      -2.82755000      -0.42620000
C       -7.45743000      -2.00454000      -4.65030000      -0.62863000
H       -7.54092000      -1.97987000      -5.74210000       0.22524000
H       -7.01097000      -2.96184000      -4.36723000       0.27310000
H       -8.46708000      -1.94693000      -4.24325000       0.21850000
C       -6.61430000       2.06978000      -1.62602000      -0.59831000
H       -5.76677000       2.38423000      -1.01125000       0.22490000
H       -7.04670000       2.97525000      -2.07097000       0.23247000
H       -7.36110000       1.65055000      -0.95499000       0.22538000
C       -3.25492000       0.73651000      -5.23170000      -0.60231000
H       -2.61546000      -0.14596000      -5.16254000       0.23793000
H       -3.46539000       0.91679000      -6.29301000       0.23146000
H       -2.66950000       1.57322000      -4.85563000       0.22176000
C        0.68799000      -4.62757000      -0.00107000      -0.60195000
H        0.27313000      -5.64020000      -0.05145000       0.21327000
H        1.27017000      -4.44813000      -0.91088000       0.20719000
H        1.36227000      -4.56797000       0.86045000       0.20161000
C        0.80148000       4.53808000       0.70748000      -0.60462000
H        0.43758000       5.56825000       0.79527000       0.20736000
H        1.37292000       4.29316000       1.60884000       0.20821000
H        1.47126000       4.47477000      -0.15571000       0.21147000
N       -9.97665000      -6.65330000       0.51021000      -0.50413000
C       -9.82297000      -7.24396000       1.83190000      -0.36500000
C      -11.30476000      -6.20876000       0.12319000      -0.36331000
H      -10.78969000      -7.62241000       2.17044000       0.20583000
H       -9.13019000      -8.09294000       1.80366000       0.20078000
H       -9.44858000      -6.52112000       2.57384000       0.19043000
H      -11.46787000      -5.13454000       0.31356000       0.18397000
H      -11.48506000      -6.39544000      -0.94175000       0.19993000
H      -12.05127000      -6.77500000       0.68400000       0.20714000
