127
R3TS20minorsOMecNMe2.xyz  (col5 = NBO charge)
O       -3.00764000      -1.90084000      -2.91982000      -0.41525000
N       -1.75936000      -1.58325000      -2.76524000       0.47905000
C       -1.39163000      -0.26579000      -2.63909000      -0.16558000
C       -0.07303000       0.06409000      -2.34880000      -0.07470000
C        0.47748000       1.40635000      -2.54806000      -0.12903000
O       -1.88361000       1.49549000      -0.06207000      -0.70905000
C       -0.69233000       1.25775000       0.14738000       0.78775000
C        0.00254000       0.00049000      -0.00182000      -0.50648000
C       -0.67184000      -1.26263000       0.11018000       0.79115000
O       -1.89624000      -1.44514000       0.04902000      -0.71799000
Ru      -4.78086000      -0.72772000      -2.69459000       0.15571000
S       -5.08609000      -3.87416000      -1.91664000       2.25300000
O       -5.14877000      -3.88844000      -3.39353000      -0.95463000
O       -3.89727000      -4.41378000      -1.22899000      -0.94953000
N       -4.16731000      -0.06356000      -0.78509000      -0.74104000
N       -5.46798000      -2.32049000      -1.42376000      -0.87385000
C       -5.17821000      -0.55357000       0.18692000      -0.01972000
C       -5.17296000      -2.08742000       0.01638000      -0.06299000
C       -4.98720000      -0.05313000       1.60532000      -0.05077000
C       -6.11258000       0.37234000       2.32391000      -0.20104000
C       -5.99633000       0.81117000       3.64263000      -0.21348000
C       -4.74345000       0.83867000       4.25866000      -0.21580000
C       -3.61670000       0.42008000       3.54783000      -0.20709000
C       -3.73402000      -0.02694000       2.23081000      -0.20568000
C       -6.16850000      -2.71001000       0.98332000      -0.02436000
C       -5.70842000      -3.31465000       2.15707000      -0.20500000
C       -6.60707000      -3.83005000       3.09299000      -0.20789000
C       -7.98112000      -3.75007000       2.86088000      -0.22512000
C       -8.44873000      -3.14980000       1.68819000      -0.20992000
C       -7.54756000      -2.62922000       0.76130000      -0.21627000
C       -4.91503000       1.34032000      -3.68063000       0.00039000
C       -6.12903000       1.00601000      -2.95312000       0.01305000
C       -6.85793000      -0.17624000      -3.28488000       0.01130000
C       -6.40678000      -1.00779000      -4.38256000       0.04983000
C       -5.14976000      -0.76795000      -4.97558000       0.00332000
C       -4.39306000       0.42608000      -4.63037000       0.01479000
C       -4.21333000       2.63948000      -3.33184000      -0.60533000
C       -8.10763000      -0.59537000      -2.54740000      -0.60191000
C       -4.61455000      -1.78474000      -5.95795000      -0.61029000
H       -4.03145000       0.94216000      -0.69102000       0.41500000
H       -6.15411000      -0.19990000      -0.16059000       0.21277000
H       -4.16538000      -2.44013000       0.27058000       0.24490000
H       -7.09174000       0.33572000       1.85197000       0.21286000
H       -6.88159000       1.13059000       4.18648000       0.21528000
H       -4.64660000       1.18375000       5.28492000       0.21475000
H       -2.63733000       0.43918000       4.01917000       0.21608000
H       -2.85658000      -0.35162000       1.68688000       0.24545000
H       -4.63824000      -3.37669000       2.33628000       0.22256000
H       -6.23282000      -4.29650000       4.00073000       0.21501000
H       -8.68356000      -4.15442000       3.58579000       0.21165000
H       -9.51679000      -3.09676000       1.49127000       0.21131000
H       -7.90492000      -2.18864000      -0.16225000       0.21925000
H       -4.93705000       3.45676000      -3.25992000       0.22957000
H       -3.69118000       2.58305000      -2.36857000       0.23100000
H       -3.48341000       2.92947000      -4.08668000       0.22487000
H       -9.00676000      -0.36313000      -3.13240000       0.22655000
H       -8.07955000      -1.66967000      -2.35543000       0.23881000
H       -8.20521000      -0.10754000      -1.57850000       0.21922000
H       -3.58207000      -1.59129000      -6.24160000       0.22461000
H       -4.65244000      -2.77940000      -5.50548000       0.26131000
H       -5.21648000      -1.79348000      -6.87587000       0.22084000
H       -3.24227000      -0.46045000      -0.54189000       0.47273000
H       -2.20982000       0.43245000      -2.64017000       0.22702000
C       -6.47808000      -4.85061000      -1.34782000      -0.31381000
C       -7.72940000      -4.70524000      -1.94606000      -0.17902000
C       -6.33988000      -5.67592000      -0.23343000      -0.16692000
C       -8.84208000      -5.34512000      -1.41588000      -0.27970000
H       -7.83823000      -4.07800000      -2.82375000       0.22413000
C       -7.44581000      -6.32071000       0.30360000      -0.26920000
H       -5.36483000      -5.78257000       0.22776000       0.24331000
C       -8.73189000      -6.15552000      -0.25965000       0.21646000
H       -9.80120000      -5.19981000      -1.89790000       0.21968000
H       -7.30559000      -6.92912000       1.18772000       0.22407000
H        1.06839000       0.00779000       0.18828000       0.24031000
O        0.17672000      -2.30748000       0.21601000      -0.57182000
C       -0.43793000      -3.61827000       0.12922000      -0.05291000
H       -1.03818000      -3.78491000       1.03109000       0.17964000
H       -1.11122000      -3.64449000      -0.73141000       0.22226000
O        0.18066000       2.25413000       0.47693000      -0.57899000
C       -0.37336000       3.57573000       0.57514000      -0.04167000
H       -1.08172000       3.60800000       1.41188000       0.18388000
H       -0.92825000       3.80688000      -0.33893000       0.18644000
C        1.86047000       1.61048000      -2.43035000      -0.13516000
C       -0.32446000       2.52790000      -2.83914000      -0.17146000
C        2.43549000       2.86889000      -2.58730000      -0.30104000
H        2.49976000       0.76398000      -2.19328000       0.22269000
C        0.23119000       3.78744000      -2.99995000      -0.25760000
H       -1.39748000       2.41574000      -2.92671000       0.21752000
C        1.61665000       3.97199000      -2.86797000       0.34021000
H        3.50818000       2.97998000      -2.48201000       0.23012000
H       -0.38571000       4.65322000      -3.21952000       0.22968000
H        0.63434000      -0.75756000      -2.36844000       0.25787000
O       -0.92289000      -2.49746000      -2.80552000      -0.44125000
C       -7.23168000      -2.17479000      -4.86803000      -0.62833000
H       -7.27292000      -2.17352000      -5.96254000       0.22484000
H       -6.77281000      -3.11448000      -4.54821000       0.27309000
H       -8.25772000      -2.13560000      -4.50179000       0.21814000
C       -6.60995000       1.97884000      -1.89758000      -0.59803000
H       -5.79680000       2.31678000      -1.24952000       0.22472000
H       -7.03535000       2.87001000      -2.37678000       0.23201000
H       -7.38053000       1.55831000      -1.25479000       0.22499000
C       -3.07495000       0.65698000      -5.33642000      -0.60190000
H       -2.41958000      -0.20863000      -5.21998000       0.23883000
H       -3.24361000       0.81075000      -6.40932000       0.23060000
H       -2.52532000       1.51458000      -4.95344000       0.22140000
C        0.69008000      -4.62329000      -0.00152000      -0.60209000
H        0.27742000      -5.63657000      -0.05670000       0.21344000
H        1.26163000      -4.43383000      -0.91594000       0.20783000
H        1.37275000      -4.56923000       0.85385000       0.20077000
C        0.78941000       4.53128000       0.77647000      -0.60271000
H        0.42216000       5.55920000       0.87364000       0.20931000
H        1.35144000       4.27474000       1.68058000       0.20747000
H        1.46913000       4.48435000      -0.07988000       0.20797000
O        2.05950000       5.25035000      -3.02433000      -0.54610000
C        3.44754000       5.50721000      -2.86581000      -0.22095000
H        4.04632000       4.96441000      -3.60952000       0.17974000
H        3.57213000       6.58098000      -3.01678000       0.19962000
H        3.79362000       5.23926000      -1.85844000       0.18010000
N       -9.84702000      -6.76581000       0.30449000      -0.50455000
C       -9.73248000      -7.31479000       1.64796000      -0.36502000
C      -11.16809000      -6.35885000      -0.14326000      -0.36330000
H      -10.70278000      -7.70753000       1.95898000       0.20566000
H       -9.01932000      -8.14683000       1.67163000       0.20071000
H       -9.40523000      -6.56235000       2.38275000       0.19038000
H      -11.35970000      -5.28379000       0.01304000       0.18387000
H      -11.30413000      -6.57587000      -1.20900000       0.19989000
H      -11.92392000      -6.92642000       0.40362000       0.20697000
