116
R3TS2majorsOMe.xyz  (col5 = NBO charge)
O       -1.35977000      -2.19421000       3.17853000      -0.44499000
N       -1.95100000      -1.10446000       3.09804000       0.47007000
C       -1.29995000       0.05940000       2.75520000      -0.16331000
C        0.03342000       0.04291000       2.36019000      -0.06217000
C        0.93791000       1.18894000       2.45426000      -0.12926000
O       -1.89476000      -1.50536000       0.07594000      -0.70560000
C       -0.68844000      -1.27965000      -0.03923000       0.78744000
C       -0.02749000      -0.00615000      -0.02451000      -0.51144000
C       -0.70200000       1.25263000      -0.17204000       0.78701000
O       -1.89805000       1.51781000      -0.00056000      -0.72247000
Ru      -4.90470000       0.30584000       2.74129000       0.19054000
S       -7.16690000      -2.01287000       2.91782000       2.25772000
O       -6.97244000      -1.87232000       4.37292000      -0.95050000
O       -8.38714000      -1.38813000       2.33098000      -0.98772000
N       -4.09522000      -0.07027000       0.82891000      -0.74275000
N       -5.79210000      -1.51002000       2.17194000      -0.87576000
C       -4.96241000      -0.89447000      -0.06410000      -0.02441000
C       -5.60279000      -2.01276000       0.78954000      -0.04746000
C       -5.91746000       0.00281000      -0.82986000      -0.04075000
C       -5.37426000       0.79366000      -1.85585000      -0.21096000
C       -6.17587000       1.66831000      -2.58678000      -0.21177000
C       -7.54376000       1.75639000      -2.30888000      -0.22079000
C       -8.09259000       0.96584000      -1.29864000      -0.21122000
C       -7.28539000       0.09620000      -0.55753000      -0.22412000
C       -4.78847000      -3.30693000       0.72781000      -0.03083000
C       -5.01047000      -4.19459000      -0.33199000      -0.21453000
C       -4.31056000      -5.39944000      -0.41418000      -0.21698000
C       -3.37904000      -5.73311000       0.57294000      -0.23037000
C       -3.15289000      -4.84819000       1.62903000      -0.20858000
C       -3.85023000      -3.64244000       1.70548000      -0.20604000
C       -4.24956000       2.50971000       3.12495000      -0.01562000
C       -4.18971000       1.78943000       4.34533000       0.04266000
C       -5.36086000       1.09310000       4.84827000      -0.03352000
C       -6.59016000       1.22319000       4.16178000       0.08058000
C       -6.61785000       1.78825000       2.83588000      -0.00478000
C       -5.42884000       2.38691000       2.30200000       0.03623000
C       -3.11991000       3.38111000       2.61762000      -0.62431000
C       -5.28450000       0.29789000       6.13233000      -0.60675000
C       -7.95348000       1.89384000       2.13964000      -0.61611000
H       -3.21220000      -0.59116000       0.91592000       0.45504000
H       -4.29281000      -1.36463000      -0.79306000       0.23818000
H       -6.57023000      -2.24121000       0.32671000       0.22454000
H       -4.30886000       0.72799000      -2.06975000       0.22467000
H       -5.73751000       2.27439000      -3.37524000       0.21876000
H       -8.17521000       2.43221000      -2.87960000       0.21790000
H       -9.15375000       1.02949000      -1.07199000       0.21964000
H       -7.72703000      -0.48356000       0.24603000       0.24533000
H       -5.75390000      -3.95213000      -1.08936000       0.21150000
H       -4.50341000      -6.08161000      -1.23877000       0.21162000
H       -2.83953000      -6.67575000       0.51918000       0.21067000
H       -2.43077000      -5.08991000       2.40459000       0.21453000
H       -3.68710000      -2.97071000       2.53691000       0.24827000
H       -3.52661000       4.32587000       2.24220000       0.23007000
H       -2.41521000       3.63601000       3.40913000       0.21789000
H       -2.57117000       2.91405000       1.79232000       0.25222000
H       -5.59029000       0.90436000       6.99562000       0.21955000
H       -5.92928000      -0.57833000       6.06349000       0.25324000
H       -4.27377000      -0.06584000       6.31693000       0.22592000
H       -7.87224000       2.29721000       1.13379000       0.22661000
H       -8.43990000       0.91860000       2.07937000       0.25645000
H       -8.60466000       2.56328000       2.71757000       0.22186000
H       -3.78004000       0.76654000       0.33760000       0.43488000
H       -1.92540000       0.93286000       2.76691000       0.22848000
C       -7.28776000      -3.76236000       2.54626000      -0.28878000
C       -6.44252000      -4.65255000       3.21019000      -0.17067000
C       -8.15317000      -4.20136000       1.54582000      -0.19304000
C       -6.44270000      -5.99129000       2.83483000      -0.20474000
H       -5.77969000      -4.28764000       3.98690000       0.24277000
C       -8.14058000      -5.54723000       1.18141000      -0.21706000
H       -8.81575000      -3.49157000       1.06214000       0.24095000
C       -7.27106000      -6.45352000       1.80137000      -0.00324000
H       -5.76731000      -6.68472000       3.32910000       0.22006000
H       -8.80348000      -5.89487000       0.39267000       0.21742000
C       -7.18065000      -7.88684000       1.33845000      -0.60824000
H       -6.30641000      -8.01598000       0.68635000       0.22531000
H       -7.06237000      -8.57718000       2.18120000       0.21779000
H       -8.06706000      -8.18827000       0.77077000       0.21346000
H        1.03630000      -0.00616000      -0.22048000       0.24200000
O        0.19676000       2.24357000      -0.45751000      -0.56538000
C       -0.33473000       3.56627000      -0.52436000      -0.21997000
H       -1.16328000       3.62489000      -1.23701000       0.18714000
H       -0.68726000       3.89688000       0.45807000       0.17781000
H        0.49341000       4.19925000      -0.84800000       0.19154000
O        0.21239000      -2.29871000      -0.10525000      -0.57131000
C       -0.34112000      -3.60040000       0.14182000      -0.23031000
H       -1.14527000      -3.83233000      -0.56101000       0.19437000
H        0.49000000      -4.29837000       0.02339000       0.18389000
H       -0.74730000      -3.64321000       1.15557000       0.19967000
H        0.50527000      -0.93427000       2.35427000       0.25513000
C        2.30838000       1.00306000       2.21186000      -0.13736000
C        0.50505000       2.48956000       2.77528000      -0.17300000
C        3.21529000       2.05716000       2.27010000      -0.29864000
H        2.66854000       0.00996000       1.95531000       0.22344000
C        1.39304000       3.55121000       2.83658000      -0.25313000
H       -0.54141000       2.67136000       2.97788000       0.21523000
C        2.75791000       3.34697000       2.57832000       0.34971000
H        4.26375000       1.86738000       2.07284000       0.23075000
H        1.05871000       4.55369000       3.08459000       0.22977000
O       -3.20508000      -1.05463000       3.43698000      -0.45515000
C       -7.89921000       0.83085000       4.79824000      -0.61411000
H       -8.44309000       1.76149000       5.01738000       0.22246000
H       -8.51924000       0.22367000       4.14036000       0.25434000
H       -7.76777000       0.28306000       5.72699000       0.23375000
C       -5.42925000       3.02625000       0.93162000      -0.61390000
H       -5.72247000       4.08211000       1.00787000       0.22993000
H       -4.44135000       2.98842000       0.46820000       0.23095000
H       -6.11979000       2.53009000       0.25296000       0.24078000
C       -2.93285000       1.72589000       5.18413000      -0.60592000
H       -3.13801000       2.08600000       6.19839000       0.23219000
H       -2.58441000       0.69241000       5.25819000       0.24310000
H       -2.11300000       2.31508000       4.77767000       0.21909000
O        3.54579000       4.45321000       2.65803000      -0.54435000
C        4.93654000       4.31258000       2.40332000      -0.22133000
H        5.12444000       3.94942000       1.38407000       0.18061000
H        5.36337000       5.31077000       2.51578000       0.20009000
H        5.41110000       3.63173000       3.12267000       0.17995000
