120
R3TS20majorsNO2.xyz  (col5 = NBO charge)
O       -0.77586000      -2.00260000       3.15482000      -0.49323000
N       -1.24121000      -0.86527000       3.39539000       0.44923000
C       -0.63595000       0.27764000       2.91282000      -0.19439000
C        0.50432000       0.20872000       2.10819000      -0.13134000
C        1.40558000       1.36972000       1.94814000      -0.02164000
O       -1.90324000      -1.44460000       0.01074000      -0.68538000
C       -0.68981000      -1.27793000       0.03135000       0.80935000
C        0.00525000       0.00211000      -0.01796000      -0.48197000
C       -0.72563000       1.22587000      -0.25057000       0.80109000
O       -1.89731000       1.47383000       0.06604000      -0.71114000
Ru      -5.02618000       0.67105000       3.03031000       0.24908000
S       -7.34011000      -1.50053000       3.48821000       2.24774000
O       -7.22160000      -1.12915000       4.90623000      -0.93590000
O       -8.46377000      -0.93416000       2.70346000      -0.96100000
N       -3.88035000      -0.15788000       1.44884000      -0.77334000
N       -5.87870000      -1.11648000       2.74707000      -0.85004000
C       -4.75019000      -1.00499000       0.57855000      -0.03217000
C       -5.55524000      -1.91440000       1.52691000      -0.05134000
C       -5.54551000      -0.12212000      -0.36475000      -0.04161000
C       -4.84142000       0.48147000      -1.41890000      -0.20294000
C       -5.49486000       1.31882000      -2.32135000      -0.21029000
C       -6.86688000       1.55555000      -2.18909000      -0.22036000
C       -7.57299000       0.95267000      -1.14678000      -0.21501000
C       -6.91605000       0.12243000      -0.23267000      -0.22270000
C       -4.77322000      -3.19040000       1.82630000      -0.04014000
C       -5.01385000      -4.33160000       1.05158000      -0.21223000
C       -4.27687000      -5.49824000       1.25618000      -0.21098000
C       -3.27833000      -5.53258000       2.23404000      -0.22606000
C       -3.02662000      -4.39343000       3.00086000      -0.20183000
C       -3.77660000      -3.23200000       2.80572000      -0.22367000
C       -4.02617000       2.80594000       3.17377000       0.00676000
C       -4.06027000       2.23390000       4.46805000       0.03086000
C       -5.31327000       1.71688000       4.99626000       0.01443000
C       -6.52372000       1.92704000       4.28688000       0.02436000
C       -6.45603000       2.33917000       2.90830000       0.04966000
C       -5.19468000       2.73849000       2.33592000       0.01338000
C       -2.77442000       3.41580000       2.58382000      -0.62692000
C       -5.31518000       1.02971000       6.34227000      -0.61091000
C       -7.75059000       2.42475000       2.13554000      -0.61605000
H       -3.19784000      -0.77867000       1.88889000       0.42668000
H       -4.09268000      -1.63395000      -0.02466000       0.25864000
H       -6.47716000      -2.20377000       1.00992000       0.23013000
H       -3.77347000       0.30100000      -1.51194000       0.23397000
H       -4.93612000       1.78192000      -3.13033000       0.21846000
H       -7.38079000       2.20212000      -2.89555000       0.21802000
H       -8.63903000       1.13250000      -1.03358000       0.21951000
H       -7.47704000      -0.30922000       0.58947000       0.24017000
H       -5.79410000      -4.31238000       0.29426000       0.21478000
H       -4.48261000      -6.37888000       0.65253000       0.21386000
H       -2.69823000      -6.43861000       2.39066000       0.21380000
H       -2.23185000      -4.38303000       3.74014000       0.22541000
H       -3.57087000      -2.36693000       3.42543000       0.24431000
H       -3.02357000       4.35683000       2.08266000       0.22880000
H       -2.03195000       3.64573000       3.34747000       0.21702000
H       -2.31789000       2.76212000       1.83506000       0.25848000
H       -5.42806000       1.76018000       7.15479000       0.22476000
H       -6.12169000       0.30092000       6.39909000       0.25110000
H       -4.38126000       0.48823000       6.50204000       0.23297000
H       -7.59940000       2.67319000       1.08845000       0.22947000
H       -8.29591000       1.47918000       2.18561000       0.25226000
H       -8.38202000       3.20384000       2.58200000       0.22847000
H       -3.29258000       0.46408000       0.87690000       0.46045000
H       -1.15205000       1.18212000       3.18406000       0.21856000
C       -7.45501000      -3.28059000       3.39311000      -0.29979000
C       -6.65593000      -4.04897000       4.24360000      -0.16957000
C       -8.26918000      -3.87304000       2.42993000      -0.18839000
C       -6.65588000      -5.43081000       4.09811000      -0.20242000
H       -6.03177000      -3.56389000       4.98558000       0.24475000
C       -8.25919000      -5.26199000       2.30225000      -0.21653000
H       -8.89204000      -3.25110000       1.79567000       0.24360000
C       -7.44022000      -6.05545000       3.11577000       0.00416000
H       -6.01832000      -6.03500000       4.73773000       0.22435000
H       -8.88584000      -5.73425000       1.54989000       0.22085000
C       -7.35737000      -7.54871000       2.91793000      -0.60967000
H       -6.42591000      -7.80729000       2.39707000       0.22625000
H       -7.35214000      -8.08198000       3.87512000       0.22110000
H       -8.19167000      -7.92748000       2.31919000       0.21508000
H        1.01765000      -0.02426000      -0.40202000       0.24835000
O        0.07416000       2.18912000      -0.77648000      -0.56847000
C       -0.49821000       3.50327000      -0.91072000      -0.04280000
H       -1.37815000       3.44738000      -1.56135000       0.19006000
H       -0.83581000       3.85103000       0.07203000       0.18007000
O        0.18667000      -2.30102000       0.16217000      -0.57725000
C       -0.39177000      -3.59273000       0.46565000      -0.05050000
H       -0.70412000      -4.06230000      -0.47484000       0.17938000
H       -1.27466000      -3.44870000       1.08925000       0.21649000
H        0.98204000      -0.76529000       2.07075000       0.26255000
C        2.72428000       1.15594000       1.50543000      -0.18127000
C        0.98858000       2.69187000       2.18525000      -0.20230000
C        3.59152000       2.21650000       1.27973000      -0.17704000
H        3.06115000       0.14011000       1.31849000       0.23195000
C        1.83827000       3.76567000       1.95512000      -0.18040000
H       -0.01776000       2.88798000       2.53204000       0.22479000
C        3.13053000       3.51582000       1.49421000       0.05836000
H        4.60503000       2.05925000       0.93199000       0.25379000
H        1.51713000       4.78749000       2.11525000       0.25105000
O       -2.29279000      -0.72130000       4.10318000      -0.52263000
C       -7.88040000       1.72689000       4.91598000      -0.60559000
H       -8.37764000       2.70564000       4.96075000       0.22178000
H       -8.51410000       1.05240000       4.33996000       0.24744000
H       -7.81595000       1.33294000       5.92713000       0.23183000
C       -5.08569000       3.17162000       0.89145000      -0.61510000
H       -5.22291000       4.25881000       0.80953000       0.22659000
H       -4.11119000       2.91805000       0.47068000       0.24110000
H       -5.83087000       2.68657000       0.26411000       0.23844000
C       -2.83323000       2.13224000       5.34431000      -0.61798000
H       -3.06521000       2.45256000       6.36468000       0.22594000
H       -2.47842000       1.09727000       5.36835000       0.26669000
H       -2.01025000       2.74978000       4.98645000       0.21613000
C        0.66591000      -4.40176000       1.19069000      -0.60498000
H        0.27407000      -5.39947000       1.41949000       0.21050000
H        1.57137000      -4.51409000       0.58439000       0.20238000
H        0.92511000      -3.90646000       2.13131000       0.21585000
C        0.57995000       4.40652000      -1.48116000      -0.60362000
H        0.18147000       5.41542000      -1.63460000       0.21349000
H        1.43210000       4.47309000      -0.79816000       0.20947000
H        0.93570000       4.02331000      -2.44283000       0.21216000
N        4.01785000       4.64847000       1.21073000       0.49984000
O        5.18971000       4.40331000       0.92363000      -0.39256000
O        3.53409000       5.78150000       1.26782000      -0.39918000
