114
R3TS2minorsNO2.xyz  (col5 = NBO charge)
O       -3.18181000      -1.89795000      -2.80352000      -0.39783000
N       -1.92430000      -1.62205000      -2.72289000       0.48812000
C       -1.51212000      -0.30585000      -2.61457000      -0.15163000
C       -0.18081000      -0.01515000      -2.38596000      -0.10181000
C        0.39770000       1.31909000      -2.57747000      -0.04633000
O       -1.88370000       1.49523000      -0.05838000      -0.70545000
C       -0.69125000       1.25903000       0.14290000       0.78303000
C        0.00199000      -0.00024000      -0.00126000      -0.50119000
C       -0.67266000      -1.26134000       0.11376000       0.78601000
O       -1.89587000      -1.44672000       0.04566000      -0.71529000
Ru      -4.92162000      -0.67147000      -2.51435000       0.15502000
S       -5.29784000      -3.81110000      -1.74585000       2.24908000
O       -5.41437000      -3.81091000      -3.21877000      -0.95144000
O       -4.11187000      -4.40830000      -1.10469000      -0.94598000
N       -4.21720000      -0.02922000      -0.62885000      -0.73973000
N       -5.59630000      -2.25241000      -1.22402000      -0.87452000
C       -5.18620000      -0.51343000       0.38917000      -0.01990000
C       -5.21794000      -2.04269000       0.20088000      -0.06102000
C       -4.90665000      -0.03640000       1.80034000      -0.05222000
C       -5.97204000       0.44814000       2.57033000      -0.20050000
C       -5.77115000       0.87033000       3.88455000      -0.21148000
C       -4.49281000       0.82001000       4.44377000      -0.21362000
C       -3.42505000       0.34059000       3.68180000      -0.20597000
C       -3.62763000      -0.08881000       2.36958000      -0.20667000
C       -6.17051000      -2.66981000       1.20474000      -0.03013000
C       -5.66137000      -3.35044000       2.31427000      -0.20423000
C       -6.52032000      -3.89517000       3.27066000      -0.20746000
C       -7.90231000      -3.76623000       3.12357000      -0.22029000
C       -8.41862000      -3.08346000       2.01837000      -0.20855000
C       -7.55685000      -2.53566000       1.07026000      -0.21635000
C       -5.03649000       1.40416000      -3.49039000       0.00132000
C       -6.22508000       1.10175000      -2.70983000       0.01710000
C       -7.00255000      -0.05815000      -3.01148000       0.01356000
C       -6.62871000      -0.89435000      -4.13441000       0.05247000
C       -5.39296000      -0.68970000      -4.78218000       0.00370000
C       -4.58435000       0.47720000      -4.46345000       0.01530000
C       -4.28454000       2.68335000      -3.17388000      -0.60688000
C       -8.22906000      -0.44372000      -2.21868000      -0.60278000
C       -4.93833000      -1.71280000      -5.79795000      -0.61086000
H       -4.06929000       0.97483000      -0.53745000       0.41556000
H       -6.17097000      -0.13479000       0.09799000       0.21365000
H       -4.20411000      -2.41637000       0.39362000       0.24288000
H       -6.97160000       0.47411000       2.14243000       0.21288000
H       -6.61068000       1.23739000       4.46906000       0.21647000
H       -4.33032000       1.15143000       5.46606000       0.21607000
H       -2.42673000       0.29790000       4.10968000       0.21699000
H       -2.79593000      -0.46247000       1.78630000       0.24145000
H       -4.58514000      -3.45479000       2.42408000       0.22216000
H       -6.10953000      -4.42496000       4.12621000       0.21616000
H       -8.57359000      -4.19706000       3.86201000       0.21385000
H       -9.49391000      -2.98833000       1.89003000       0.21310000
H       -7.95405000      -2.03203000       0.19593000       0.21854000
H       -4.98221000       3.51938000      -3.06925000       0.23200000
H       -3.72118000       2.61221000      -2.23504000       0.23124000
H       -3.58396000       2.95556000      -3.96254000       0.22464000
H       -9.14596000      -0.19347000      -2.76709000       0.22828000
H       -8.21782000      -1.51722000      -2.02024000       0.23991000
H       -8.27509000       0.05267000      -1.25045000       0.21959000
H       -3.92198000      -1.53904000      -6.14553000       0.22440000
H       -4.97034000      -2.70900000      -5.34792000       0.26105000
H       -5.59557000      -1.70570000      -6.67680000       0.22303000
H       -3.28562000      -0.43440000      -0.43313000       0.47125000
H       -2.31379000       0.41061000      -2.58213000       0.23085000
C       -6.71746000      -4.74591000      -1.14032000      -0.26526000
C       -7.97325000      -4.54737000      -1.71315000      -0.19977000
C       -6.55817000      -5.61974000      -0.06641000      -0.18538000
C       -9.08093000      -5.20368000      -1.18118000      -0.21809000
H       -8.08153000      -3.88735000      -2.56570000       0.22609000
C       -7.67395000      -6.26866000       0.45707000      -0.20570000
H       -5.57220000      -5.76325000       0.35947000       0.24558000
C       -8.95153000      -6.06000000      -0.07869000      -0.01496000
H      -10.06194000      -5.04643000      -1.62413000       0.21470000
H       -7.55294000      -6.93472000       1.30780000       0.21882000
C      -10.15972000      -6.71474000       0.54671000      -0.60675000
H      -10.45990000      -6.17952000       1.45777000       0.22081000
H      -11.01805000      -6.71724000      -0.13324000       0.21314000
H       -9.95145000      -7.75112000       0.83550000       0.21890000
H        1.07074000       0.00706000       0.17104000       0.24279000
O        0.17825000      -2.30474000       0.22987000      -0.55982000
C       -0.44549000      -3.60292000       0.17210000      -0.22740000
H       -1.13523000      -3.73634000       1.01059000       0.18491000
H       -0.99870000      -3.72019000      -0.76371000       0.21319000
H        0.37679000      -4.31698000       0.23482000       0.18629000
O        0.18256000       2.25689000       0.46369000      -0.56669000
C       -0.39542000       3.55748000       0.60870000      -0.22197000
H       -1.13933000       3.56455000       1.41176000       0.18848000
H        0.43534000       4.22157000       0.85250000       0.19194000
H       -0.87442000       3.87986000      -0.31986000       0.18236000
C        1.79498000       1.47764000      -2.50561000      -0.16481000
C       -0.39358000       2.45704000      -2.82578000      -0.19647000
C        2.38767000       2.72239000      -2.66310000      -0.17907000
H        2.41632000       0.60951000      -2.30574000       0.23300000
C        0.18389000       3.70974000      -2.98626000      -0.18438000
H       -1.46992000       2.36603000      -2.87826000       0.22623000
C        1.57040000       3.82920000      -2.89903000       0.06509000
H        3.46092000       2.85318000      -2.60365000       0.25516000
H       -0.41634000       4.59168000      -3.17310000       0.25192000
H        0.50805000      -0.85194000      -2.41982000       0.26173000
O       -1.11229000      -2.55033000      -2.81385000      -0.42194000
C       -7.51394000      -2.02547000      -4.59673000      -0.62826000
H       -7.63279000      -1.98206000      -5.68500000       0.22664000
H       -7.05872000      -2.98677000      -4.34468000       0.27166000
H       -8.51004000      -1.97774000      -4.15718000       0.21967000
C       -6.63060000       2.08359000      -1.63147000      -0.59877000
H       -5.77759000       2.41232000      -1.03220000       0.22457000
H       -7.06966000       2.97913000      -2.08961000       0.23421000
H       -7.36921000       1.67617000      -0.94440000       0.22589000
C       -3.29339000       0.67364000      -5.22763000      -0.60206000
H       -2.66356000      -0.21563000      -5.15711000       0.23704000
H       -3.50677000       0.85078000      -6.28878000       0.23354000
H       -2.69799000       1.50686000      -4.85958000       0.22043000
N        2.18367000       5.15344000      -3.05878000       0.50013000
O        1.43353000       6.11226000      -3.25107000      -0.39707000
O        3.41060000       5.22893000      -2.98898000      -0.39087000
