112
R3TS2major.xyz  (col5 = NBO charge)
O       -0.86510000      -2.12786000       3.07691000      -0.50480000
N       -1.39903000      -1.01036000       3.26555000       0.44580000
C       -0.80922000       0.15537000       2.83621000      -0.19660000
C        0.39169000       0.14305000       2.11102000      -0.11803000
C        1.29703000       1.31708000       2.08799000      -0.07041000
O       -1.90046000      -1.46079000       0.04728000      -0.68519000
C       -0.69080000      -1.28033000      -0.01858000       0.80735000
C        0.00000000      -0.00000000      -0.00000000      -0.48090000
C       -0.71927000       1.23232000      -0.22954000       0.80711000
O       -1.90021000       1.48807000       0.04044000      -0.71186000
Ru      -5.12170000       0.56265000       2.87991000       0.25002000
S       -7.44056000      -1.63696000       3.12144000       2.24860000
O       -7.34635000      -1.37635000       4.56621000      -0.93643000
O       -8.55532000      -1.01186000       2.36743000      -0.96383000
N       -3.96243000      -0.13304000       1.25608000      -0.77540000
N       -5.96994000      -1.20203000       2.43758000      -0.85540000
C       -4.80567000      -0.91312000       0.30473000      -0.03042000
C       -5.62761000      -1.89790000       1.16065000      -0.04989000
C       -5.58968000       0.03542000      -0.58360000      -0.03982000
C       -4.87350000       0.72413000      -1.57533000      -0.20394000
C       -5.51772000       1.62410000      -2.42263000      -0.21077000
C       -6.89351000       1.84102000      -2.29680000      -0.22085000
C       -7.61179000       1.15617000      -1.31519000      -0.21475000
C       -6.96392000       0.26222000      -0.45643000      -0.22252000
C       -4.85865000      -3.19964000       1.36791000      -0.04041000
C       -5.09924000      -4.27402000       0.50326000      -0.21327000
C       -4.38404000      -5.46504000       0.63258000      -0.21398000
C       -3.40975000      -5.59068000       1.62704000      -0.22580000
C       -3.15823000      -4.51702000       2.48346000      -0.20018000
C       -3.88290000      -3.33063000       2.36019000      -0.21924000
C       -4.14247000       2.68550000       3.18406000       0.00520000
C       -4.18214000       2.02141000       4.43346000       0.03218000
C       -5.43651000       1.46082000       4.91349000       0.01242000
C       -6.64250000       1.71307000       4.21120000       0.02496000
C       -6.56745000       2.22007000       2.86476000       0.04717000
C       -5.30452000       2.66940000       2.33431000       0.01424000
C       -2.89161000       3.34565000       2.64810000      -0.62509000
C       -5.44444000       0.67329000       6.20349000      -0.61034000
C       -7.85687000       2.35423000       2.09000000      -0.61626000
H       -3.28264000      -0.78288000       1.65760000       0.43779000
H       -4.12860000      -1.48979000      -0.33030000       0.25477000
H       -6.54154000      -2.13995000       0.60619000       0.22843000
H       -3.80173000       0.56288000      -1.66240000       0.23093000
H       -4.94878000       2.15179000      -3.18360000       0.21821000
H       -7.40051000       2.53642000      -2.96062000       0.21788000
H       -8.68068000       1.32088000      -1.20579000       0.21957000
H       -7.53491000      -0.23284000       0.32188000       0.24086000
H       -5.86480000      -4.18560000      -0.26430000       0.21344000
H       -4.59055000      -6.29411000      -0.04011000       0.21281000
H       -2.84904000      -6.51671000       1.72798000       0.21277000
H       -2.38484000      -4.57774000       3.24322000       0.22471000
H       -3.67594000      -2.51772000       3.04687000       0.24697000
H       -3.14568000       4.31872000       2.21502000       0.22784000
H       -2.15651000       3.52501000       3.43172000       0.21884000
H       -2.42078000       2.75230000       1.85835000       0.25686000
H       -5.57236000       1.33761000       7.06888000       0.22392000
H       -6.24465000      -0.06498000       6.19505000       0.25030000
H       -4.50722000       0.12901000       6.33005000       0.23385000
H       -7.69925000       2.67917000       1.06492000       0.22844000
H       -8.39596000       1.40419000       2.06644000       0.25332000
H       -8.49684000       3.09526000       2.58641000       0.22752000
H       -3.35985000       0.52756000       0.74770000       0.45816000
H       -1.38081000       1.03680000       3.06767000       0.21606000
C       -7.55850000      -3.40445000       2.88838000      -0.29871000
C       -6.76946000      -4.23852000       3.68452000      -0.16923000
C       -8.36560000      -3.91874000       1.87580000      -0.18890000
C       -6.77202000      -5.60513000       3.43373000      -0.20258000
H       -6.14931000      -3.81370000       4.46572000       0.24521000
C       -8.35877000      -5.29397000       1.64238000      -0.21725000
H       -8.98031000      -3.24763000       1.28526000       0.24314000
C       -7.54934000      -6.15003000       2.39980000       0.00316000
H       -6.14058000      -6.25838000       4.02970000       0.22430000
H       -8.97953000      -5.70509000       0.85021000       0.22021000
C       -7.46733000      -7.62380000       2.08808000      -0.60952000
H       -6.53063000      -7.84360000       1.55886000       0.22605000
H       -7.47349000      -8.22963000       3.00113000       0.22077000
H       -8.29581000      -7.95292000       1.45289000       0.21461000
H        1.02241000      -0.01256000      -0.35759000       0.25060000
O        0.10670000       2.20069000      -0.70710000      -0.55378000
C       -0.45728000       3.51020000      -0.80850000      -0.22177000
H       -1.35112000       3.50669000      -1.43974000       0.18849000
H       -0.72124000       3.89572000       0.18137000       0.18211000
H        0.32331000       4.13036000      -1.25143000       0.19422000
O        0.19158000      -2.30943000      -0.04897000      -0.56503000
C       -0.39595000      -3.60246000       0.17598000      -0.23019000
H       -1.14449000      -3.83073000      -0.58825000       0.18730000
H        0.43315000      -4.31038000       0.12556000       0.18489000
H       -0.87210000      -3.62435000       1.15850000       0.21067000
H        0.89090000      -0.82154000       2.09323000       0.25760000
C        2.64071000       1.13368000       1.72146000      -0.18359000
C        0.86889000       2.61615000       2.40410000      -0.20597000
C        3.52506000       2.20864000       1.66840000      -0.20613000
H        2.98699000       0.13424000       1.46910000       0.22060000
C        1.75063000       3.69446000       2.34887000      -0.20921000
H       -0.16034000       2.78838000       2.69384000       0.21320000
C        3.08276000       3.49714000       1.97912000      -0.20943000
H        4.56054000       2.04115000       1.38434000       0.21993000
H        1.39604000       4.69150000       2.59806000       0.21615000
H        3.77028000       4.33752000       1.93715000       0.21821000
O       -2.51496000      -0.91423000       3.88965000      -0.53925000
C       -8.00256000       1.46141000       4.81380000      -0.60502000
H       -8.50364000       2.43265000       4.92846000       0.22099000
H       -8.62965000       0.82989000       4.18448000       0.24731000
H       -7.94341000       0.99281000       5.79297000       0.23150000
C       -5.18727000       3.20999000       0.92737000      -0.61311000
H       -5.32145000       4.30067000       0.92704000       0.22624000
H       -4.21034000       2.98737000       0.49489000       0.23823000
H       -5.92902000       2.77577000       0.26044000       0.23823000
C       -2.96040000       1.85672000       5.30687000      -0.61861000
H       -3.19388000       2.12231000       6.34284000       0.22515000
H       -2.62248000       0.81613000       5.27316000       0.26779000
H       -2.12597000       2.47893000       4.98608000       0.21746000
