118
R3TS20minor.xyz  (col5 = NBO charge)
O       -3.16616000      -1.85523000      -2.82332000      -0.40424000
N       -1.90648000      -1.57780000      -2.73534000       0.48680000
C       -1.49487000      -0.26410000      -2.62385000      -0.15497000
C       -0.16184000       0.02815000      -2.40730000      -0.07536000
C        0.42464000       1.35647000      -2.61114000      -0.09589000
O       -1.88490000       1.49622000      -0.05665000      -0.71724000
C       -0.68891000       1.25939000       0.13601000       0.78410000
C        0.00039000      -0.00017000       0.00922000      -0.51528000
C       -0.67121000      -1.26121000       0.10470000       0.78570000
O       -1.89686000      -1.44827000       0.04939000      -0.72445000
Ru      -4.90399000      -0.63963000      -2.51432000       0.15673000
S       -5.27100000      -3.79738000      -1.81410000       2.24980000
O       -5.39193000      -3.76782000      -3.28656000      -0.95184000
O       -4.08438000      -4.40923000      -1.18815000      -0.94588000
N       -4.20076000      -0.03815000      -0.61664000      -0.74145000
N       -5.57244000      -2.25218000      -1.25837000      -0.87522000
C       -5.16774000      -0.54547000       0.38988000      -0.01971000
C       -5.19131000      -2.07181000       0.17013000      -0.06156000
C       -4.89662000      -0.09474000       1.81213000      -0.05154000
C       -5.98208000       0.28711000       2.61243000      -0.20128000
C       -5.79155000       0.68056000       3.93666000      -0.21285000
C       -4.50389000       0.70652000       4.47655000      -0.21527000
C       -3.41694000       0.33170000       3.68430000      -0.20638000
C       -3.60828000      -0.07030000       2.36130000      -0.20677000
C       -6.13819000      -2.72710000       1.16095000      -0.02914000
C       -5.62265000      -3.42820000       2.25461000      -0.20400000
C       -6.47638000      -3.99835000       3.20091000      -0.20773000
C       -7.85947000      -3.87483000       3.05945000      -0.22125000
C       -8.38227000      -3.17226000       1.96977000      -0.20947000
C       -7.52574000      -2.59931000       1.03185000      -0.21670000
C       -5.01790000       1.45690000      -3.44248000       0.00091000
C       -6.20503000       1.13810000      -2.66600000       0.01653000
C       -6.98502000      -0.01347000      -2.99227000       0.01120000
C       -6.61391000      -0.82531000      -4.13407000       0.05144000
C       -5.38023000      -0.60666000      -4.78113000       0.00204000
C       -4.56996000       0.55221000      -4.43834000       0.01612000
C       -4.25873000       2.72440000      -3.09640000      -0.60747000
C       -8.20974000      -0.41627000      -2.20497000      -0.60207000
C       -4.92820000      -1.60737000      -5.82026000      -0.61062000
H       -4.04945000       0.96321000      -0.50386000       0.41684000
H       -6.15492000      -0.16801000       0.10459000       0.21290000
H       -4.17473000      -2.44277000       0.35211000       0.24488000
H       -6.98759000       0.25190000       2.19974000       0.21339000
H       -6.64633000       0.96643000       4.54413000       0.21572000
H       -4.34952000       1.01667000       5.50685000       0.21521000
H       -2.41094000       0.34991000       4.09565000       0.21680000
H       -2.76074000      -0.36181000       1.75504000       0.24457000
H       -4.54551000      -3.52778000       2.35983000       0.22302000
H       -6.06054000      -4.54352000       4.04432000       0.21588000
H       -8.52656000      -4.32534000       3.78999000       0.21342000
H       -9.45845000      -3.08148000       1.84525000       0.21275000
H       -7.92756000      -2.07969000       0.16898000       0.21845000
H       -4.95285000       3.55678000      -2.94866000       0.22967000
H       -3.67436000       2.61952000      -2.17360000       0.23426000
H       -3.57411000       3.02224000      -3.88991000       0.22479000
H       -9.12847000      -0.15394000      -2.74478000       0.22735000
H       -8.19829000      -1.49398000      -2.03049000       0.23902000
H       -8.25274000       0.05824000      -1.22565000       0.21941000
H       -3.91337000      -1.42438000      -6.16754000       0.22456000
H       -4.95645000      -2.61275000      -5.39092000       0.26091000
H       -5.58862000      -1.58321000      -6.69651000       0.22183000
H       -3.26771000      -0.44816000      -0.43116000       0.47347000
H       -2.29515000       0.45345000      -2.58625000       0.23060000
C       -6.68829000      -4.74912000      -1.22677000      -0.26410000
C       -7.94626000      -4.53920000      -1.79055000      -0.20012000
C       -6.52428000      -5.64922000      -0.17555000      -0.18586000
C       -9.05102000      -5.21123000      -1.27217000      -0.21842000
H       -8.05846000      -3.85725000      -2.62514000       0.22584000
C       -7.63706000      -6.31365000       0.33478000      -0.20599000
H       -5.53672000      -5.80048000       0.24399000       0.24568000
C       -8.91659000      -6.09480000      -0.19208000      -0.01592000
H      -10.03377000      -5.04476000      -1.70800000       0.21430000
H       -7.51217000      -7.00022000       1.16854000       0.21847000
C      -10.12161000      -6.76763000       0.42027000      -0.60660000
H      -10.42114000      -6.25547000       1.34475000       0.22053000
H      -10.98160000      -6.75597000      -0.25758000       0.21293000
H       -9.91007000      -7.81021000       0.68343000       0.21860000
H        1.07057000       0.00718000       0.17077000       0.24017000
O        0.17972000      -2.30859000       0.18983000      -0.57374000
C       -0.43611000      -3.61758000       0.11114000      -0.05164000
H       -1.05270000      -3.77208000       1.00406000       0.18068000
H       -1.09590000      -3.65315000      -0.76017000       0.21689000
O        0.19002000       2.26142000       0.42961000      -0.57909000
C       -0.36169000       3.58357000       0.52482000      -0.04085000
H       -1.05491000       3.62490000       1.37386000       0.18361000
H       -0.93373000       3.80620000      -0.38114000       0.18382000
C        1.82311000       1.49883000      -2.56803000      -0.16302000
C       -0.35391000       2.50128000      -2.85893000      -0.19347000
C        2.42417000       2.73787000      -2.76905000      -0.20994000
H        2.43591000       0.62453000      -2.36425000       0.22239000
C        0.24661000       3.74214000      -3.05932000      -0.21467000
H       -1.43334000       2.42394000      -2.88098000       0.21656000
C        1.63768000       3.86721000      -3.01660000      -0.20094000
H        3.50646000       2.82489000      -2.73161000       0.22197000
H       -0.37298000       4.61501000      -3.24809000       0.21825000
H        2.10488000       4.83512000      -3.17593000       0.22011000
H        0.52242000      -0.81272000      -2.43168000       0.25711000
O       -1.09744000      -2.50920000      -2.82851000      -0.42498000
C       -7.49813000      -1.94973000      -4.61478000      -0.62831000
H       -7.61547000      -1.89151000      -5.70247000       0.22593000
H       -7.04169000      -2.91388000      -4.37528000       0.27182000
H       -8.49495000      -1.90895000      -4.17593000       0.21905000
C       -6.60474000       2.09392000      -1.56224000      -0.59844000
H       -5.74840000       2.40579000      -0.95868000       0.22504000
H       -7.04420000       3.00136000      -1.99609000       0.23309000
H       -7.34090000       1.67071000      -0.88206000       0.22544000
C       -3.28130000       0.76538000      -5.20206000      -0.60292000
H       -2.65108000      -0.12497000      -5.15185000       0.23804000
H       -3.49856000       0.96473000      -6.25860000       0.23190000
H       -2.68392000       1.58980000      -4.81800000       0.22236000
C        0.69088000      -4.62791000       0.01364000      -0.60196000
H        0.27661000      -5.64078000      -0.03661000       0.21324000
H        1.28246000      -4.45232000      -0.89085000       0.20712000
H        1.35637000      -4.56472000       0.88165000       0.20201000
C        0.80631000       4.53853000       0.69397000      -0.60462000
H        0.44395000       5.56934000       0.78038000       0.20742000
H        1.38012000       4.29501000       1.59417000       0.20829000
H        1.47345000       4.47219000      -0.17104000       0.21152000
