119
R3TS2minorsNO2cNMe2.xyz  (col5 = NBO charge)
O       -3.15539000      -1.91617000      -2.81839000      -0.39678000
N       -1.90105000      -1.63048000      -2.72829000       0.48764000
C       -1.49948000      -0.31133000      -2.61860000      -0.15294000
C       -0.17166000      -0.01073000      -2.37996000      -0.10320000
C        0.39675000       1.32827000      -2.57103000      -0.04556000
O       -1.88361000       1.49441000      -0.05930000      -0.70410000
C       -0.69192000       1.25841000       0.14476000       0.78320000
C        0.00268000      -0.00015000      -0.00294000      -0.50017000
C       -0.67278000      -1.26135000       0.11444000       0.78650000
O       -1.89585000      -1.44535000       0.04572000      -0.71371000
Ru      -4.90518000      -0.70084000      -2.54158000       0.15377000
S       -5.25610000      -3.83471000      -1.74059000       2.25166000
O       -5.37036000      -3.84628000      -3.21443000      -0.95464000
O       -4.05390000      -4.39647000      -1.09584000      -0.94882000
N       -4.21197000      -0.03610000      -0.66032000      -0.73960000
N       -5.58058000      -2.26914000      -1.23838000      -0.87301000
C       -5.18876000      -0.50740000       0.35606000      -0.01977000
C       -5.22152000      -2.03992000       0.18754000      -0.06173000
C       -4.91938000      -0.01097000       1.76253000      -0.05156000
C       -5.98791000       0.49335000       2.51510000      -0.20052000
C       -5.79606000       0.93340000       3.82484000      -0.21184000
C       -4.52352000       0.88116000       4.39694000      -0.21408000
C       -3.45253000       0.38190000       3.65232000      -0.20637000
C       -3.64622000      -0.06521000       2.34472000      -0.20624000
C       -6.18876000      -2.64096000       1.19597000      -0.02598000
C       -5.69412000      -3.26046000       2.34758000      -0.20502000
C       -6.56467000      -3.75766000       3.31927000      -0.20750000
C       -7.94489000      -3.64398000       3.14541000      -0.22371000
C       -8.44703000      -3.02823000       1.99527000      -0.20913000
C       -7.57357000      -2.52596000       1.03253000      -0.21579000
C       -5.03212000       1.36340000      -3.54115000       0.00044000
C       -6.22270000       1.05922000      -2.76410000       0.01586000
C       -6.98870000      -0.11021000      -3.05785000       0.01364000
C       -6.60150000      -0.95565000      -4.16893000       0.05223000
C       -5.36295000      -0.74806000      -4.81049000       0.00372000
C       -4.56656000       0.43012000      -4.50143000       0.01419000
C       -4.29387000       2.65239000      -3.23295000      -0.60596000
C       -8.21681000      -0.49729000      -2.26861000      -0.60265000
C       -4.89172000      -1.78011000      -5.80950000      -0.61087000
H       -4.06362000       0.96880000      -0.57877000       0.41497000
H       -6.17125000      -0.13242000       0.05265000       0.21344000
H       -4.21132000      -2.41325000       0.40038000       0.24220000
H       -6.98321000       0.52017000       2.07736000       0.21280000
H       -6.63809000       1.31568000       4.39591000       0.21617000
H       -4.36795000       1.22641000       5.41576000       0.21582000
H       -2.45866000       0.33761000       4.09032000       0.21679000
H       -2.81223000      -0.45398000       1.77464000       0.24166000
H       -4.61923000      -3.34973000       2.48128000       0.22184000
H       -6.16387000      -4.23644000       4.20900000       0.21551000
H       -8.62560000      -4.03421000       3.89815000       0.21224000
H       -9.52078000      -2.94879000       1.84389000       0.21183000
H       -7.95927000      -2.07360000       0.12618000       0.21915000
H       -4.99874000       3.48532000      -3.15346000       0.23186000
H       -3.74700000       2.60017000      -2.28323000       0.22984000
H       -3.58084000       2.91683000      -4.01295000       0.22452000
H       -9.13265000      -0.24867000      -2.81977000       0.22778000
H       -8.20415000      -1.57065000      -2.07007000       0.23979000
H       -8.26569000      -0.00112000      -1.30033000       0.21953000
H       -3.86838000      -1.61102000      -6.13845000       0.22427000
H       -4.93359000      -2.77231000      -5.35191000       0.26143000
H       -5.53205000      -1.77835000      -6.70095000       0.22257000
H       -3.28261000      -0.44035000      -0.45287000       0.47105000
H       -2.30651000       0.39945000      -2.59424000       0.23002000
C       -6.64762000      -4.77602000      -1.11894000      -0.31624000
C       -7.91703000      -4.60090000      -1.66968000      -0.17866000
C       -6.48649000      -5.60473000      -0.00986000      -0.16597000
C       -9.02339000      -5.21457000      -1.09758000      -0.27988000
H       -8.04442000      -3.97237000      -2.54387000       0.22417000
C       -7.58592000      -6.22363000       0.56869000      -0.26950000
H       -5.49748000      -5.73536000       0.41382000       0.24341000
C       -8.88852000      -6.02803000       0.05432000       0.21790000
H       -9.99632000      -5.04751000      -1.54345000       0.22019000
H       -7.42666000      -6.83670000       1.44630000       0.22462000
H        1.07088000       0.00727000       0.17305000       0.24269000
O        0.17676000      -2.30515000       0.23379000      -0.55969000
C       -0.44929000      -3.60272000       0.17676000      -0.22763000
H       -1.13872000      -3.73448000       1.01571000       0.18478000
H       -1.00370000      -3.71957000      -0.75830000       0.21446000
H        0.37213000      -4.31782000       0.23928000       0.18593000
O        0.18035000       2.25563000       0.47243000      -0.56687000
C       -0.39918000       3.55548000       0.61807000      -0.22206000
H       -1.14806000       3.55966000       1.41650000       0.18851000
H        0.42975000       4.21926000       0.86899000       0.19175000
H       -0.87271000       3.88043000      -0.31241000       0.18253000
C        1.79225000       1.49887000      -2.49322000      -0.16514000
C       -0.40308000       2.45923000      -2.82411000      -0.19663000
C        2.37513000       2.74837000      -2.64970000      -0.17908000
H        2.41998000       0.63627000      -2.28944000       0.23292000
C        0.16449000       3.71657000      -2.98364000      -0.18450000
H       -1.47840000       2.35905000      -2.88155000       0.22627000
C        1.54959000       3.84798000      -2.89056000       0.06466000
H        3.44696000       2.88828000      -2.58570000       0.25504000
H       -0.44245000       4.59311000      -3.17419000       0.25185000
H        0.52388000      -0.84197000      -2.41282000       0.26184000
O       -1.08078000      -2.55261000      -2.81137000      -0.42329000
C       -7.47374000      -2.10159000      -4.61954000      -0.62860000
H       -7.56514000      -2.09324000      -5.71103000       0.22590000
H       -7.02284000      -3.05323000      -4.32539000       0.27312000
H       -8.48058000      -2.04132000      -4.20630000       0.21904000
C       -6.64378000       2.05009000      -1.70003000      -0.59861000
H       -5.79938000       2.38428000      -1.09138000       0.22446000
H       -7.07669000       2.94158000      -2.17173000       0.23364000
H       -7.39214000       1.64804000      -1.02034000       0.22571000
C       -3.27182000       0.62761000      -5.25897000      -0.60157000
H       -2.63447000      -0.25466000      -5.17022000       0.23689000
H       -3.47823000       0.78681000      -6.32432000       0.23315000
H       -2.68680000       1.47155000      -4.89851000       0.21998000
N        2.15228000       5.17701000      -3.04927000       0.50012000
O        1.39509000       6.12937000      -3.24632000      -0.39728000
O        3.37827000       5.26318000      -2.97396000      -0.39118000
N       -9.99428000      -6.61167000       0.65981000      -0.50310000
C       -9.84217000      -7.17425000       1.99385000      -0.36495000
C      -11.32313000      -6.18682000       0.25355000      -0.36341000
H      -10.81007000      -7.54129000       2.34117000       0.20616000
H       -9.15239000      -8.02618000       1.98419000       0.20079000
H       -9.46500000      -6.43641000       2.71926000       0.19075000
H      -11.49210000      -5.10808000       0.40931000       0.18435000
H      -11.49828000      -6.40805000      -0.80569000       0.20002000
H      -12.06899000      -6.73859000       0.82929000       0.20754000
