115
R3TS2minorsOMecNO2.xyz  (col5 = NBO charge)
O       -3.08377000      -1.86906000      -2.87936000      -0.42268000
N       -1.82582000      -1.56811000      -2.74468000       0.47907000
C       -1.43937000      -0.25718000      -2.62039000      -0.16216000
C       -0.11062000       0.05743000      -2.35964000      -0.07135000
C        0.45415000       1.39161000      -2.56615000      -0.13224000
O       -1.88237000       1.50253000      -0.06150000      -0.71015000
C       -0.69235000       1.25780000       0.14750000       0.78873000
C        0.00007000       0.00003000      -0.00414000      -0.50825000
C       -0.67176000      -1.26202000       0.11363000       0.78986000
O       -1.89507000      -1.45238000       0.04719000      -0.72043000
Ru      -4.83825000      -0.68208000      -2.61077000       0.15737000
S       -5.15724000      -3.83184000      -1.85728000       2.25762000
O       -5.25263000      -3.84655000      -3.32991000      -0.94519000
O       -3.99281000      -4.43283000      -1.18406000      -0.93972000
N       -4.18154000      -0.04279000      -0.70784000      -0.74127000
N       -5.49819000      -2.29304000      -1.33741000      -0.87857000
C       -5.16665000      -0.54523000       0.28526000      -0.01988000
C       -5.15974000      -2.07515000       0.09875000      -0.06263000
C       -4.93722000      -0.06374000       1.70425000      -0.05360000
C       -6.03978000       0.37079000       2.45196000      -0.20115000
C       -5.88694000       0.79441000       3.77206000      -0.21200000
C       -4.62022000       0.79661000       4.35953000      -0.21348000
C       -3.51597000       0.36846000       3.61951000      -0.20585000
C       -3.66988000      -0.06295000       2.30120000      -0.20587000
C       -6.12201000      -2.73226000       1.07225000      -0.03464000
C       -5.62477000      -3.44306000       2.16826000      -0.20407000
C       -6.49469000      -4.04007000       3.08306000      -0.20744000
C       -7.87551000      -3.93240000       2.90859000      -0.21746000
C       -8.38036000      -3.21239000       1.82135000      -0.21158000
C       -7.50797000      -2.61379000       0.91433000      -0.21953000
C       -4.95739000       1.38894000      -3.57797000       0.00098000
C       -6.16181000       1.07869000      -2.82566000       0.01772000
C       -6.92094000      -0.08838000      -3.14192000       0.00933000
C       -6.51195000      -0.92403000      -4.25431000       0.04942000
C       -5.27224000      -0.70062000      -4.88860000       0.00527000
C       -4.47648000       0.46660000      -4.54331000       0.01965000
C       -4.22038000       2.67330000      -3.24730000      -0.60666000
C       -8.16111000      -0.48452000      -2.37529000      -0.60175000
C       -4.79037000      -1.71501000      -5.90112000      -0.61132000
H       -4.04470000       0.96187000      -0.60612000       0.41656000
H       -6.15162000      -0.18789000      -0.03182000       0.21345000
H       -4.14286000      -2.42516000       0.31380000       0.24730000
H       -7.02979000       0.35643000       2.00182000       0.21258000
H       -6.75451000       1.12160000       4.33904000       0.21664000
H       -4.49517000       1.12916000       5.38673000       0.21608000
H       -2.52634000       0.36747000       4.06909000       0.21722000
H       -2.81012000      -0.39594000       1.73453000       0.24378000
H       -4.54938000      -3.53420000       2.29666000       0.22388000
H       -6.09358000      -4.59650000       3.92605000       0.21820000
H       -8.55497000      -4.40984000       3.60930000       0.21871000
H       -9.45434000      -3.13031000       1.67491000       0.21590000
H       -7.89625000      -2.07996000       0.05347000       0.21757000
H       -4.92703000       3.50251000      -3.14825000       0.23035000
H       -3.66574000       2.60369000      -2.30330000       0.23230000
H       -3.51339000       2.95237000      -4.02786000       0.22518000
H       -9.06726000      -0.27319000      -2.95667000       0.22911000
H       -8.12998000      -1.55229000      -2.14884000       0.23629000
H       -8.25048000       0.03558000      -1.42277000       0.21983000
H       -3.82249000      -1.46020000      -6.32778000       0.22426000
H       -4.69998000      -2.69281000      -5.41725000       0.26264000
H       -5.50292000      -1.80537000      -6.72959000       0.22267000
H       -3.24971000      -0.44095000      -0.49301000       0.47353000
H       -2.24797000       0.45143000      -2.60072000       0.22751000
C       -6.59038000      -4.79059000      -1.28767000      -0.21023000
C       -7.82863000      -4.60530000      -1.90786000      -0.20573000
C       -6.44772000      -5.65992000      -0.20714000      -0.19284000
C       -8.95107000      -5.25849000      -1.41361000      -0.18717000
H       -7.90888000      -3.94958000      -2.76551000       0.23797000
C       -7.56713000      -6.31399000       0.30055000      -0.17167000
H       -5.47232000      -5.78873000       0.24533000       0.25675000
C       -8.80312000      -6.09181000      -0.30313000       0.06205000
H       -9.92957000      -5.12992000      -1.85922000       0.25126000
H       -7.49926000      -6.96890000       1.15946000       0.25588000
H        1.06673000       0.00778000       0.18081000       0.24297000
O        0.18102000      -2.30340000       0.23662000      -0.55953000
C       -0.43714000      -3.60252000       0.16267000      -0.22762000
H       -1.13037000      -3.74775000       0.99658000       0.18248000
H       -0.98387000      -3.71180000      -0.77780000       0.21514000
H        0.38746000      -4.31437000       0.22288000       0.18519000
O        0.18140000       2.25019000       0.48681000      -0.56478000
C       -0.38666000       3.55624000       0.60079000      -0.22160000
H       -1.17202000       3.57581000       1.36334000       0.18650000
H        0.43918000       4.21004000       0.88720000       0.18960000
H       -0.80929000       3.88255000      -0.35372000       0.18282000
C        1.84837000       1.57645000      -2.46382000      -0.14226000
C       -0.33113000       2.51822000      -2.85121000      -0.16700000
C        2.42636000       2.82174000      -2.63595000      -0.25020000
H        2.47852000       0.72199000      -2.23140000       0.22419000
C        0.23471000       3.78014000      -3.02991000      -0.30624000
H       -1.40653000       2.42036000      -2.92598000       0.21571000
C        1.62247000       3.93962000      -2.91736000       0.34773000
H        3.49891000       2.96461000      -2.55401000       0.23371000
H       -0.40927000       4.62333000      -3.25187000       0.22666000
H        0.58612000      -0.77306000      -2.39019000       0.25833000
O       -1.00513000      -2.49430000      -2.80434000      -0.43871000
C       -7.37152000      -2.06837000      -4.73344000      -0.62593000
H       -7.55370000      -1.96491000      -5.80964000       0.22816000
H       -6.86332000      -3.02076000      -4.56618000       0.26746000
H       -8.34336000      -2.09514000      -4.24214000       0.21925000
C       -6.59324000       2.05419000      -1.75149000      -0.59854000
H       -5.75098000       2.39207000      -1.14232000       0.22494000
H       -7.03850000       2.94484000      -2.21321000       0.23393000
H       -7.33354000       1.63675000      -1.07226000       0.22549000
C       -3.16484000       0.67043000      -5.26897000      -0.60377000
H       -2.54956000      -0.22940000      -5.20726000       0.24001000
H       -3.34891000       0.88360000      -6.32924000       0.23205000
H       -2.56799000       1.48240000      -4.85882000       0.22270000
O        2.28375000       5.11957000      -3.06440000      -0.54398000
C        1.52554000       6.29122000      -3.32499000      -0.22037000
H        0.81409000       6.49903000      -2.51407000       0.17810000
H        2.24747000       7.10714000      -3.38985000       0.20097000
H        0.97814000       6.21513000      -4.27437000       0.17862000
N       -9.99639000      -6.74000000       0.26041000       0.50294000
O       -9.84785000      -7.45311000       1.25297000      -0.39016000
O      -11.07878000      -6.52483000      -0.28786000      -0.39691000
