124
R3TS20minorsCNcNMe2.xyz  (col5 = NBO charge)
O       -3.17393000      -1.90545000      -2.80259000      -0.39477000
N       -1.91928000      -1.61980000      -2.72948000       0.48901000
C       -1.51723000      -0.29911000      -2.62208000      -0.14998000
C       -0.18792000       0.00199000      -2.40699000      -0.09613000
C        0.37870000       1.34099000      -2.59099000      -0.05500000
O       -1.88495000       1.49236000      -0.05893000      -0.71131000
C       -0.69016000       1.25918000       0.14012000       0.78188000
C        0.00200000      -0.00013000       0.00640000      -0.50691000
C       -0.67135000      -1.26204000       0.10488000       0.78546000
O       -1.89702000      -1.44341000       0.05020000      -0.71950000
Ru      -4.92577000      -0.70046000      -2.49156000       0.15363000
S       -5.23881000      -3.84287000      -1.71389000       2.25178000
O       -5.37895000      -3.84272000      -3.18568000      -0.95484000
O       -4.02017000      -4.39948000      -1.09574000      -0.94918000
N       -4.21320000      -0.04559000      -0.61472000      -0.74074000
N       -5.56988000      -2.28541000      -1.19218000      -0.87316000
C       -5.17157000      -0.53326000       0.41057000      -0.01975000
C       -5.19181000      -2.06524000       0.23050000      -0.06233000
C       -4.89046000      -0.04399000       1.81759000      -0.05131000
C       -5.96387000       0.39774000       2.60252000      -0.20071000
C       -5.76213000       0.82837000       3.91366000      -0.21239000
C       -4.47497000       0.83080000       4.45501000      -0.21474000
C       -3.39950000       0.39513000       3.67801000      -0.20654000
C       -3.60253000      -0.04347000       2.36871000      -0.20650000
C       -6.13823000      -2.68456000       1.24738000      -0.02555000
C       -5.61990000      -3.30597000       2.38749000      -0.20480000
C       -6.47060000      -3.81929000       3.36831000      -0.20754000
C       -7.85441000      -3.72023000       3.21516000      -0.22429000
C       -8.38018000      -3.10297000       2.07642000      -0.20938000
C       -7.52649000      -2.58445000       1.10457000      -0.21614000
C       -5.07540000       1.37094000      -3.47026000       0.00031000
C       -6.25236000       1.05479000      -2.67738000       0.01645000
C       -7.01832000      -0.11542000      -2.96973000       0.01342000
C       -6.64573000      -0.94923000      -4.09469000       0.05230000
C       -5.41885000      -0.73019000      -4.75441000       0.00300000
C       -4.62202000       0.44803000      -4.44636000       0.01452000
C       -4.33304000       2.65737000      -3.15985000      -0.60617000
C       -8.23236000      -0.51441000      -2.16473000      -0.60222000
C       -4.95909000      -1.75042000      -5.77081000      -0.61084000
H       -4.07074000       0.95963000      -0.52691000       0.41555000
H       -6.16197000      -0.16686000       0.12242000       0.21336000
H       -4.17515000      -2.43019000       0.42524000       0.24360000
H       -6.96957000       0.38093000       2.18892000       0.21315000
H       -6.60781000       1.16113000       4.50982000       0.21591000
H       -4.31180000       1.16954000       5.47485000       0.21551000
H       -2.39412000       0.39413000       4.09127000       0.21675000
H       -2.76436000      -0.38249000       1.77396000       0.24296000
H       -4.54220000      -3.38331000       2.50510000       0.22230000
H       -6.05158000      -4.29904000       4.24909000       0.21542000
H       -8.51969000      -4.12296000       3.97509000       0.21213000
H       -9.45687000      -3.03495000       1.94111000       0.21172000
H       -7.93022000      -2.13069000       0.20675000       0.21912000
H       -5.03751000       3.48613000      -3.04358000       0.23115000
H       -3.75640000       2.58908000      -2.22878000       0.23142000
H       -3.64536000       2.93856000      -3.95680000       0.22405000
H       -9.15777000      -0.26021000      -2.69710000       0.22756000
H       -8.21524000      -1.59016000      -1.98021000       0.23926000
H       -8.26529000      -0.03077000      -1.18946000       0.21978000
H       -3.94089000      -1.57499000      -6.11219000       0.22422000
H       -4.99165000      -2.74747000      -5.32331000       0.26132000
H       -5.61176000      -1.74101000      -6.65324000       0.22244000
H       -3.27737000      -0.44464000      -0.42345000       0.47239000
H       -2.32497000       0.41027000      -2.58189000       0.23094000
C       -6.61004000      -4.80368000      -1.07710000      -0.31588000
C       -7.89034000      -4.63607000      -1.60436000      -0.17841000
C       -6.42178000      -5.64010000       0.02182000      -0.16605000
C       -8.98061000      -5.26603000      -1.01918000      -0.27980000
H       -8.03892000      -3.99994000      -2.46972000       0.22403000
C       -7.50500000      -6.27504000       0.61341000      -0.26947000
H       -5.42450000      -5.76377000       0.42784000       0.24343000
C       -8.81799000      -6.08840000       0.12273000       0.21794000
H       -9.96266000      -5.10448000      -1.44669000       0.22008000
H       -7.32478000      -6.89357000       1.48311000       0.22450000
H        1.07191000       0.00699000       0.17090000       0.24037000
O        0.17687000      -2.30962000       0.18884000      -0.57234000
C       -0.44302000      -3.61931000       0.12289000      -0.05194000
H       -1.04667000      -3.76797000       1.02541000       0.18167000
H       -1.11628000      -3.65690000      -0.73772000       0.21806000
O        0.18513000       2.26048000       0.44449000      -0.57986000
C       -0.37621000       3.57772000       0.57485000      -0.04142000
H       -1.08037000       3.58551000       1.41540000       0.18614000
H       -0.94057000       3.82388000      -0.33005000       0.18232000
C        1.77362000       1.51240000      -2.51531000      -0.16516000
C       -0.41948000       2.47354000      -2.83752000      -0.19405000
C        2.35503000       2.76218000      -2.66851000      -0.14840000
H        2.40161000       0.64897000      -2.31509000       0.23162000
C        0.14982000       3.73031000      -2.99248000      -0.15413000
H       -1.49535000       2.37467000      -2.89250000       0.22497000
C        1.54365000       3.88692000      -2.90587000      -0.19268000
H        3.43143000       2.88107000      -2.60117000       0.23740000
H       -0.47645000       4.59777000      -3.17533000       0.23387000
H        0.50723000      -0.82959000      -2.43747000       0.26074000
O       -1.09975000      -2.54043000      -2.82888000      -0.41899000
C       -7.51823000      -2.09778000      -4.53814000      -0.62874000
H       -7.62027000      -2.08989000      -5.62858000       0.22578000
H       -7.05994000      -3.04752000      -4.24857000       0.27320000
H       -8.52121000      -2.04147000      -4.11497000       0.21903000
C       -6.66036000       2.03343000      -1.59696000      -0.59863000
H       -5.80740000       2.36684000      -0.99994000       0.22474000
H       -7.10648000       2.92660000      -2.05295000       0.23337000
H       -7.39447000       1.62090000      -0.90807000       0.22592000
C       -3.33998000       0.65743000      -5.22219000      -0.60155000
H       -2.69719000      -0.22246000      -5.15048000       0.23698000
H       -3.56360000       0.82400000      -6.28295000       0.23298000
H       -2.75339000       1.50131000      -4.86420000       0.22005000
C        0.68051000      -4.63166000       0.01233000      -0.60222000
H        0.26287000      -5.64349000      -0.02814000       0.21431000
H        1.25841000      -4.46095000      -0.90186000       0.20719000
H        1.35914000      -4.56715000       0.86995000       0.20236000
C        0.78072000       4.53636000       0.79131000      -0.60320000
H        0.40759000       5.56003000       0.90634000       0.21147000
H        1.34398000       4.26814000       1.69096000       0.20984000
H        1.46399000       4.51154000      -0.06308000       0.20840000
C        2.12949000       5.18566000      -3.04834000       0.32230000
N        2.60023000       6.24417000      -3.15827000      -0.36089000
N       -9.90750000      -6.68884000       0.74147000      -0.50327000
C       -9.72714000      -7.26173000       2.06758000      -0.36498000
C      -11.24708000      -6.27194000       0.36313000      -0.36331000
H      -10.68484000      -7.64381000       2.42677000       0.20617000
H       -9.02748000      -8.10509000       2.03869000       0.20078000
H       -9.34723000      -6.52623000       2.79398000       0.19067000
H      -11.42279000      -5.19637000       0.53280000       0.18428000
H      -11.43911000      -6.48416000      -0.69501000       0.19997000
H      -11.97766000      -6.83615000       0.94637000       0.20746000
