114
R3TS2majorsNO2.xyz  (col5 = NBO charge)
O       -0.86956000      -2.17230000       3.05041000      -0.50157000
N       -1.43067000      -1.06840000       3.23419000       0.44990000
C       -0.85181000       0.11256000       2.82348000      -0.20063000
C        0.35356000       0.11929000       2.10675000      -0.14067000
C        1.23467000       1.31111000       2.09347000      -0.01857000
O       -1.90073000      -1.45472000       0.05045000      -0.67881000
C       -0.69158000      -1.28172000      -0.02423000       0.80796000
C        0.00282000       0.00002000       0.00445000      -0.46940000
C       -0.72045000       1.23291000      -0.23070000       0.80575000
O       -1.90080000       1.48278000       0.03963000      -0.70415000
Ru      -5.25710000       0.52721000       2.76850000       0.24716000
S       -7.56613000      -1.68921000       2.89583000       2.24764000
O       -7.52091000      -1.45615000       4.34726000      -0.93534000
O       -8.65265000      -1.05039000       2.11426000      -0.96126000
N       -4.01491000      -0.14345000       1.19547000      -0.77504000
N       -6.07276000      -1.22947000       2.27022000      -0.85066000
C       -4.81758000      -0.90841000       0.19682000      -0.02994000
C       -5.66920000      -1.90977000       1.00282000      -0.05025000
C       -5.57149000       0.05621000      -0.70122000      -0.04063000
C       -4.82310000       0.76297000      -1.65551000      -0.20439000
C       -5.43898000       1.67859000      -2.50733000      -0.21050000
C       -6.81822000       1.89317000      -2.42387000      -0.21992000
C       -7.56870000       1.19045000      -1.47955000      -0.21389000
C       -6.94954000       0.28112000      -0.61595000      -0.22152000
C       -4.89953000      -3.20809000       1.22724000      -0.04059000
C       -5.09164000      -4.27213000       0.33807000      -0.21286000
C       -4.36748000      -5.45638000       0.47948000      -0.21302000
C       -3.43222000      -5.58522000       1.51037000      -0.22468000
C       -3.22911000      -4.52198000       2.39231000      -0.20311000
C       -3.96413000      -3.34331000       2.25701000      -0.21844000
C       -4.27872000       2.63391000       3.14554000       0.00651000
C       -4.35513000       1.94110000       4.37849000       0.02999000
C       -5.62496000       1.37668000       4.81036000       0.01764000
C       -6.81106000       1.65043000       4.08073000       0.02167000
C       -6.69630000       2.19205000       2.75136000       0.05104000
C       -5.41806000       2.64963000       2.26646000       0.01262000
C       -3.00590000       3.28834000       2.65471000      -0.62419000
C       -5.67241000       0.55825000       6.07996000      -0.61115000
C       -7.96158000       2.33977000       1.93998000      -0.61617000
H       -3.35278000      -0.79621000       1.62180000       0.43802000
H       -4.11568000      -1.47201000      -0.42281000       0.25407000
H       -6.55650000      -2.15021000       0.40613000       0.22929000
H       -3.74918000       0.60255000      -1.71105000       0.22973000
H       -4.84529000       2.21963000      -3.23942000       0.21832000
H       -7.30302000       2.60038000      -3.09167000       0.21836000
H       -8.64081000       1.35263000      -1.40357000       0.21992000
H       -7.54653000      -0.22797000       0.13317000       0.24087000
H       -5.82581000      -4.18104000      -0.45918000       0.21397000
H       -4.53620000      -6.27768000      -0.21290000       0.21334000
H       -2.86419000      -6.50569000       1.62011000       0.21361000
H       -2.48536000      -4.58464000       3.18094000       0.22499000
H       -3.79441000      -2.53865000       2.96289000       0.24562000
H       -3.23479000       4.27521000       2.23948000       0.22924000
H       -2.28735000       3.43805000       3.45975000       0.21834000
H       -2.52466000       2.70675000       1.86230000       0.25462000
H       -5.82867000       1.20227000       6.95589000       0.22503000
H       -6.47134000      -0.17962000       6.02880000       0.25080000
H       -4.73904000       0.01170000       6.22403000       0.23362000
H       -7.77374000       2.68818000       0.92774000       0.22892000
H       -8.49563000       1.38841000       1.87843000       0.25317000
H       -8.62001000       3.06684000       2.43258000       0.22839000
H       -3.39430000       0.52412000       0.72062000       0.45645000
H       -1.44580000       0.98185000       3.04544000       0.21727000
C       -7.66581000      -3.45127000       2.62283000      -0.30007000
C       -6.91042000      -4.29847000       3.43767000      -0.16915000
C       -8.42321000      -3.94748000       1.56367000      -0.18848000
C       -6.89552000      -5.65969000       3.15954000      -0.20228000
H       -6.32996000      -3.88778000       4.25604000       0.24512000
C       -8.39934000      -5.31758000       1.30324000      -0.21684000
H       -9.01405000      -3.26708000       0.95952000       0.24340000
C       -7.62203000      -6.18617000       2.08004000       0.00422000
H       -6.29042000      -6.32294000       3.77155000       0.22452000
H       -8.98173000      -5.71474000       0.47567000       0.22072000
C       -7.52089000      -7.65332000       1.74398000      -0.60970000
H       -6.55976000      -7.86092000       1.25519000       0.22619000
H       -7.56798000      -8.27664000       2.64391000       0.22116000
H       -8.31764000      -7.97182000       1.06444000       0.21498000
H        1.02341000      -0.01285000      -0.35968000       0.25079000
O        0.10350000       2.20157000      -0.70873000      -0.55476000
C       -0.47268000       3.50527000      -0.83886000      -0.22290000
H       -1.34735000       3.48328000      -1.49569000       0.19068000
H       -0.77180000       3.89629000       0.13863000       0.18228000
H        0.31283000       4.13008000      -1.26563000       0.19658000
O        0.18678000      -2.31080000      -0.06981000      -0.56293000
C       -0.40379000      -3.60638000       0.14091000      -0.23053000
H       -1.15436000      -3.82215000      -0.62469000       0.18858000
H        0.42372000      -4.31491000       0.07968000       0.18641000
H       -0.87783000      -3.63800000       1.12421000       0.21162000
H        0.87368000      -0.83448000       2.09849000       0.26170000
C        2.58747000       1.15771000       1.73912000      -0.18222000
C        0.76858000       2.60213000       2.39839000      -0.20557000
C        3.44633000       2.24731000       1.67649000      -0.17670000
H        2.96253000       0.16673000       1.49900000       0.23169000
C        1.61153000       3.70472000       2.33736000      -0.17885000
H       -0.26574000       2.75010000       2.68000000       0.22494000
C        2.94371000       3.51487000       1.97210000       0.05855000
H        4.48821000       2.13558000       1.40309000       0.25384000
H        1.25819000       4.70269000       2.56584000       0.25027000
O       -2.55855000      -0.99342000       3.83086000      -0.53539000
C       -8.18812000       1.38326000       4.63641000      -0.60482000
H       -8.69757000       2.34960000       4.75383000       0.22148000
H       -8.79229000       0.76066000       3.97632000       0.24715000
H       -8.15704000       0.89661000       5.60807000       0.23154000
C       -5.26152000       3.22182000       0.87586000      -0.61235000
H       -5.39808000       4.31192000       0.89539000       0.22690000
H       -4.27254000       3.01046000       0.46608000       0.23637000
H       -5.98228000       2.80066000       0.17812000       0.23917000
C       -3.15697000       1.74947000       5.27936000      -0.61824000
H       -3.42080000       1.97340000       6.31759000       0.22567000
H       -2.80695000       0.71417000       5.21576000       0.26779000
H       -2.32019000       2.39172000       5.00756000       0.21646000
N        3.83687000       4.67709000       1.89694000       0.50097000
O        5.01227000       4.47859000       1.58769000      -0.39363000
O        3.35757000       5.78526000       2.14477000      -0.39881000
