119
R3TS20majorsCN.xyz  (col5 = NBO charge)
O       -0.78444000      -2.02344000       3.14230000      -0.49263000
N       -1.26940000      -0.89242000       3.37193000       0.44973000
C       -0.67018000       0.25903000       2.90248000      -0.19409000
C        0.48297000       0.20968000       2.11551000      -0.12776000
C        1.37573000       1.38156000       1.98239000      -0.03102000
O       -1.90255000      -1.44762000       0.01491000      -0.68700000
C       -0.68910000      -1.27872000       0.02671000       0.80877000
C        0.00303000       0.00137000      -0.01831000      -0.48418000
C       -0.72406000       1.22692000      -0.24558000       0.80116000
O       -1.89805000       1.47731000       0.06186000      -0.71315000
Ru      -5.06502000       0.65528000       2.97970000       0.24821000
S       -7.38239000      -1.52096000       3.39062000       2.24772000
O       -7.27921000      -1.16401000       4.81357000      -0.93590000
O       -8.49742000      -0.94619000       2.59964000      -0.96103000
N       -3.90130000      -0.15648000       1.40488000      -0.77367000
N       -5.91310000      -1.12958000       2.66929000      -0.85003000
C       -4.75945000      -0.99538000       0.51562000      -0.03217000
C       -5.57552000      -1.91509000       1.44464000      -0.05118000
C       -5.54447000      -0.10325000      -0.42779000      -0.04140000
C       -4.82858000       0.51254000      -1.46680000      -0.20291000
C       -5.47194000       1.35916000      -2.36786000      -0.21032000
C       -6.84562000       1.59344000      -2.24939000      -0.22046000
C       -7.56347000       0.97876000      -1.22210000      -0.21501000
C       -6.91674000       0.13896000      -0.30945000      -0.22274000
C       -4.79793000      -3.19480000       1.73965000      -0.04001000
C       -5.03247000      -4.32848000       0.95226000      -0.21217000
C       -4.29907000      -5.49804000       1.15343000      -0.21109000
C       -3.31027000      -5.54281000       2.14064000      -0.22577000
C       -3.06464000      -4.41106000       2.92039000      -0.20249000
C       -3.81105000      -3.24690000       2.72842000      -0.22336000
C       -4.06509000       2.78715000       3.15522000       0.00724000
C       -4.11132000       2.19888000       4.44207000       0.03017000
C       -5.37032000       1.67990000       4.95407000       0.01473000
C       -6.57375000       1.89908000       4.23556000       0.02401000
C       -6.49252000       2.32480000       2.86179000       0.04966000
C       -5.22565000       2.73007000       2.30591000       0.01327000
C       -2.80760000       3.40412000       2.58492000      -0.62651000
C       -5.38586000       0.97895000       6.29286000      -0.61086000
C       -7.77928000       2.41751000       2.07685000      -0.61608000
H       -3.22383000      -0.78062000       1.84813000       0.42827000
H       -4.09374000      -1.61740000      -0.08591000       0.25860000
H       -6.49158000      -2.19846000       0.91409000       0.22998000
H       -3.75927000       0.33475000      -1.54883000       0.23375000
H       -4.90393000       1.83154000      -3.16495000       0.21846000
H       -7.35166000       2.24733000      -2.95481000       0.21797000
H       -8.63092000       1.15660000      -1.11953000       0.21948000
H       -7.48733000      -0.30198000       0.50108000       0.24011000
H       -5.80528000      -4.30134000       0.18758000       0.21468000
H       -4.50011000      -6.37283000       0.53974000       0.21377000
H       -2.73291000      -6.45107000       2.29454000       0.21373000
H       -2.27717000      -4.40842000       3.66760000       0.22550000
H       -3.60962000      -2.38781000       3.35772000       0.24459000
H       -3.05341000       4.34690000       2.08555000       0.22858000
H       -2.07727000       3.63304000       3.36055000       0.21673000
H       -2.33738000       2.75681000       1.83897000       0.25890000
H       -5.50470000       1.70139000       7.11169000       0.22473000
H       -6.19425000       0.25124000       6.33495000       0.25101000
H       -4.45455000       0.43395000       6.45574000       0.23304000
H       -7.61750000       2.67611000       1.03378000       0.22943000
H       -8.32435000       1.47109000       2.11209000       0.25236000
H       -8.41581000       3.19188000       2.52428000       0.22840000
H       -3.30544000       0.47030000       0.84649000       0.46067000
H       -1.20554000       1.15496000       3.16418000       0.21810000
C       -7.49686000      -3.29990000       3.27630000      -0.29975000
C       -6.70675000      -4.07717000       4.12710000      -0.16953000
C       -8.30147000      -3.88221000       2.29903000      -0.18837000
C       -6.70591000      -5.45748000       3.96783000      -0.20238000
H       -6.08977000      -3.59987000       4.88002000       0.24477000
C       -8.29090000      -5.26983000       2.15763000      -0.21660000
H       -8.91751000      -3.25358000       1.66471000       0.24358000
C       -7.48062000      -6.07182000       2.97146000       0.00410000
H       -6.07504000      -6.06839000       4.60771000       0.22437000
H       -8.91009000      -5.73420000       1.39427000       0.22083000
C       -7.39644000      -7.56308000       2.75957000      -0.60966000
H       -6.45959000      -7.81697000       2.24612000       0.22624000
H       -7.40170000      -8.10593000       3.71136000       0.22109000
H       -8.22450000      -7.93532000       2.14818000       0.21505000
H        1.01870000      -0.02201000      -0.39346000       0.24782000
O        0.08465000       2.19201000      -0.75475000      -0.56889000
C       -0.47248000       3.51353000      -0.86707000      -0.04221000
H       -1.36035000       3.47948000      -1.50833000       0.18972000
H       -0.79272000       3.85397000       0.12419000       0.17937000
O        0.19004000      -2.30173000       0.14561000      -0.57764000
C       -0.38436000      -3.59593000       0.44438000      -0.05076000
H       -0.69798000      -4.06209000      -0.49747000       0.17899000
H       -1.26611000      -3.45722000       1.07068000       0.21680000
H        0.97155000      -0.75892000       2.07658000       0.26187000
C        2.69091000       1.19169000       1.52163000      -0.18211000
C        0.96070000       2.69157000       2.27745000      -0.20242000
C        3.55667000       2.26215000       1.34489000      -0.14499000
H        3.02791000       0.18578000       1.28635000       0.23047000
C        1.81503000       3.77300000       2.10545000      -0.15000000
H       -0.04386000       2.87234000       2.63787000       0.22315000
C        3.12195000       3.56847000       1.63130000      -0.19917000
H        4.56720000       2.09933000       0.98441000       0.23625000
H        1.47821000       4.77976000       2.33183000       0.23291000
O       -2.33665000      -0.76135000       4.05930000      -0.52454000
C       -7.93665000       1.69312000       4.84919000      -0.60551000
H       -8.43485000       2.67118000       4.89772000       0.22168000
H       -8.56414000       1.02350000       4.26078000       0.24744000
H       -7.88225000       1.29016000       5.85739000       0.23174000
C       -5.10219000       3.17747000       0.86695000      -0.61500000
H       -5.23907000       4.26535000       0.79397000       0.22647000
H       -4.12331000       2.92808000       0.45385000       0.24100000
H       -5.84065000       2.69814000       0.22740000       0.23851000
C       -2.89113000       2.08139000       5.32595000      -0.61791000
H       -3.12774000       2.39451000       6.34755000       0.22586000
H       -2.54345000       1.04381000       5.34307000       0.26686000
H       -2.06112000       2.69555000       4.97873000       0.21608000
C        0.67721000      -4.40594000       1.16278000      -0.60478000
H        0.28888000      -5.40599000       1.38749000       0.21020000
H        1.58158000      -4.51265000       0.55378000       0.20220000
H        0.93746000      -3.91466000       2.10523000       0.21572000
C        0.61575000       4.40465000      -1.43718000      -0.60383000
H        0.24739000       5.43101000      -1.54288000       0.21219000
H        1.48784000       4.41277000      -0.77627000       0.21176000
H        0.93317000       4.04584000      -2.42142000       0.21166000
C        3.99839000       4.68420000       1.43669000       0.32383000
N        4.70407000       5.59513000       1.27424000      -0.36510000
