122
R3TS20minorsOMe.xyz  (col5 = NBO charge)
O       -3.02968000      -1.88716000      -2.90759000      -0.41680000
N       -1.77817000      -1.57702000      -2.76003000       0.47931000
C       -1.40217000      -0.26188000      -2.63516000      -0.16444000
C       -0.08010000       0.06038000      -2.35305000      -0.07355000
C        0.47841000       1.39868000      -2.55354000      -0.12965000
O       -1.88377000       1.49588000      -0.06105000      -0.71008000
C       -0.69175000       1.25823000       0.14579000       0.78769000
C        0.00208000       0.00034000      -0.00096000      -0.50692000
C       -0.67180000      -1.26251000       0.11047000       0.79079000
O       -1.89624000      -1.44597000       0.04843000      -0.71925000
Ru      -4.79587000      -0.70637000      -2.67118000       0.15685000
S       -5.11864000      -3.85801000      -1.91751000       2.25044000
O       -5.18225000      -3.86498000      -3.39366000      -0.95151000
O       -3.94456000      -4.42858000      -1.23106000      -0.94659000
N       -4.17348000      -0.05799000      -0.75858000      -0.74123000
N       -5.47903000      -2.30975000      -1.40921000      -0.87558000
C       -5.17597000      -0.55998000       0.21637000      -0.01978000
C       -5.16574000      -2.09097000       0.03026000      -0.06253000
C       -4.97558000      -0.07468000       1.63873000      -0.05152000
C       -6.09822000       0.33148000       2.37278000      -0.20108000
C       -5.97351000       0.75669000       3.69515000      -0.21313000
C       -4.71507000       0.78984000       4.29946000      -0.21529000
C       -3.59118000       0.39051000       3.57329000      -0.20673000
C       -3.71678000      -0.04296000       2.25248000      -0.20591000
C       -6.14514000      -2.73898000       0.99428000      -0.02846000
C       -5.66690000      -3.40059000       2.12889000      -0.20432000
C       -6.55181000      -3.96309000       3.05072000      -0.20780000
C       -7.92913000      -3.87170000       2.84358000      -0.22161000
C       -8.41481000      -3.20860000       1.71280000      -0.20931000
C       -7.52744000      -2.64286000       0.79943000      -0.21682000
C       -4.92231000       1.36958000      -3.63913000       0.00102000
C       -6.13441000       1.03763000      -2.90763000       0.01438000
C       -6.87255000      -0.13765000      -3.24390000       0.01101000
C       -6.43285000      -0.96289000      -4.35140000       0.04995000
C       -5.17900000      -0.72534000      -4.95196000       0.00351000
C       -4.41147000       0.45914000      -4.59896000       0.01603000
C       -4.20934000       2.66142000      -3.28556000      -0.60600000
C       -8.12010000      -0.55523000      -2.50153000      -0.60205000
C       -4.65864000      -1.73570000      -5.94891000      -0.61043000
H       -4.04059000       0.94737000      -0.65744000       0.41535000
H       -6.15529000      -0.20512000      -0.12022000       0.21286000
H       -4.15307000      -2.44103000       0.26595000       0.24580000
H       -7.08147000       0.29116000       1.90980000       0.21293000
H       -6.85655000       1.06130000       4.25091000       0.21561000
H       -4.61177000       1.12438000       5.32855000       0.21502000
H       -2.60756000       0.41406000       4.03544000       0.21628000
H       -2.84137000      -0.35284000       1.69691000       0.24518000
H       -4.59397000      -3.47523000       2.28541000       0.22288000
H       -6.16452000      -4.47743000       3.92651000       0.21568000
H       -8.62019000      -4.31654000       3.55509000       0.21328000
H       -9.48572000      -3.14307000       1.53730000       0.21262000
H       -7.89918000      -2.15442000      -0.09442000       0.21840000
H       -4.92783000       3.48132000      -3.19487000       0.22984000
H       -3.67357000       2.59192000      -2.33062000       0.23174000
H       -3.48918000       2.95595000      -4.04808000       0.22512000
H       -9.02078000      -0.32591000      -3.08507000       0.22717000
H       -8.09090000      -1.62886000      -2.30539000       0.23873000
H       -8.21637000      -0.06344000      -1.53457000       0.21921000
H       -3.63727000      -1.52994000      -6.26243000       0.22457000
H       -4.67319000      -2.73103000      -5.49589000       0.26132000
H       -5.28602000      -1.75240000      -6.84923000       0.22130000
H       -3.24523000      -0.45348000      -0.52519000       0.47311000
H       -2.21633000       0.44092000      -2.62991000       0.22750000
C       -6.53647000      -4.82991000      -1.36470000      -0.26387000
C       -7.77378000      -4.66483000      -1.98619000      -0.20013000
C       -6.39716000      -5.69778000      -0.28331000      -0.18617000
C       -8.88423000      -5.34873000      -1.49625000      -0.21853000
H       -7.86535000      -4.00785000      -2.84309000       0.22601000
C       -7.51545000      -6.37440000       0.19825000      -0.20620000
H       -5.42510000      -5.81461000       0.18108000       0.24541000
C       -8.77604000      -6.19968000      -0.38741000      -0.01631000
H       -9.85111000      -5.21704000      -1.97717000       0.21416000
H       -7.41083000      -7.03526000       1.05527000       0.21827000
C       -9.99080000      -6.88335000       0.19287000      -0.60651000
H      -10.34107000      -6.35248000       1.08853000       0.22043000
H      -10.82101000      -6.91112000      -0.52073000       0.21283000
H       -9.76750000      -7.91282000       0.49506000       0.21843000
H        1.06841000       0.00762000       0.18615000       0.24046000
O        0.17738000      -2.30706000       0.21671000      -0.57177000
C       -0.43642000      -3.61792000       0.13129000      -0.05252000
H       -1.04676000      -3.77944000       1.02726000       0.18000000
H       -1.10014000      -3.64828000      -0.73681000       0.22071000
O        0.18237000       2.25505000       0.46993000      -0.57871000
C       -0.37091000       3.57694000       0.56930000      -0.04158000
H       -1.07614000       3.60984000       1.40863000       0.18398000
H       -0.92910000       3.80772000      -0.34287000       0.18620000
C        1.86364000       1.59246000      -2.44391000      -0.13485000
C       -0.31710000       2.52655000      -2.83801000      -0.17137000
C        2.44681000       2.84683000      -2.60241000      -0.30087000
H        2.49819000       0.74092000      -2.21223000       0.22278000
C        0.24670000       3.78214000      -3.00037000      -0.25743000
H       -1.39148000       2.42247000      -2.91834000       0.21757000
C        1.63435000       3.95634000      -2.87654000       0.34073000
H        3.52089000       2.94997000      -2.50351000       0.23023000
H       -0.36511000       4.65281000      -3.21472000       0.22978000
H        0.62200000      -0.76578000      -2.37384000       0.25786000
O       -0.94792000      -2.49638000      -2.80606000      -0.44053000
C       -7.26781000      -2.11911000      -4.84510000      -0.62800000
H       -7.34305000      -2.08364000      -5.93752000       0.22554000
H       -6.79673000      -3.06631000      -4.56917000       0.27178000
H       -8.28218000      -2.09700000      -4.44703000       0.21872000
C       -6.60168000       2.00421000      -1.84031000      -0.59814000
H       -5.78010000       2.33925000      -1.20165000       0.22475000
H       -7.03403000       2.89762000      -2.30899000       0.23265000
H       -7.36290000       1.57972000      -1.18908000       0.22510000
C       -3.09567000       0.68779000      -5.30994000      -0.60243000
H       -2.44878000      -0.18642000      -5.21219000       0.23904000
H       -3.27003000       0.86131000      -6.37894000       0.23103000
H       -2.53466000       1.53319000      -4.91673000       0.22184000
C        0.69251000      -4.62420000       0.01902000      -0.60211000
H        0.28019000      -5.63765000      -0.03527000       0.21341000
H        1.27536000      -4.44026000      -0.88939000       0.20778000
H        1.36486000      -4.56560000       0.88217000       0.20121000
C        0.79288000       4.53219000       0.76576000      -0.60276000
H        0.42626000       5.56021000       0.86405000       0.20939000
H        1.35826000       4.27579000       1.66780000       0.20760000
H        1.46930000       4.48490000      -0.09316000       0.20810000
O        2.08542000       5.23146000      -3.03356000      -0.54589000
C        3.47649000       5.47816000      -2.88410000      -0.22100000
H        4.06611000       4.93220000      -3.63275000       0.17981000
H        3.60763000       6.55123000      -3.03435000       0.19974000
H        3.82734000       5.20619000      -1.87951000       0.18025000
