121
R3TS20minorsOMecNO2.xyz  (col5 = NBO charge)
O       -3.07344000      -1.86760000      -2.88675000      -0.42071000
N       -1.81611000      -1.56871000      -2.75300000       0.48009000
C       -1.42823000      -0.25690000      -2.63084000      -0.16133000
C       -0.10029000       0.05571000      -2.37100000      -0.06935000
C        0.46649000       1.38877000      -2.57193000      -0.13198000
O       -1.88407000       1.49678000      -0.05908000      -0.71299000
C       -0.69043000       1.25920000       0.14194000       0.78711000
C        0.00088000       0.00003000       0.00240000      -0.50941000
C       -0.67135000      -1.26216000       0.10924000       0.78940000
O       -1.89651000      -1.44789000       0.04818000      -0.72337000
Ru      -4.83024000      -0.68280000      -2.61429000       0.15717000
S       -5.13455000      -3.83676000      -1.87059000       2.25780000
O       -5.22964000      -3.84840000      -3.34333000      -0.94530000
O       -3.96714000      -4.43449000      -1.19904000      -0.94057000
N       -4.17810000      -0.04734000      -0.70813000      -0.74195000
N       -5.48305000      -2.30163000      -1.34652000      -0.87851000
C       -5.16231000      -0.55740000       0.28166000      -0.01993000
C       -5.14726000      -2.08680000       0.09081000      -0.06279000
C       -4.93918000      -0.07889000       1.70275000      -0.05342000
C       -6.04914000       0.32959000       2.45444000      -0.20126000
C       -5.90286000       0.74901000       3.77652000      -0.21232000
C       -4.63547000       0.77355000       4.36213000      -0.21383000
C       -3.52411000       0.37186000       3.61809000      -0.20597000
C       -3.67115000      -0.05567000       2.29765000      -0.20561000
C       -6.10746000      -2.75257000       1.06041000      -0.03429000
C       -5.60814000      -3.46468000       2.15462000      -0.20423000
C       -6.47640000      -4.06949000       3.06587000      -0.20758000
C       -7.85751000      -3.96860000       2.88956000      -0.21772000
C       -8.36447000      -3.24759000       1.80397000      -0.21178000
C       -7.49380000      -2.64118000       0.90051000      -0.21950000
C       -4.95665000       1.39468000      -3.56810000       0.00225000
C       -6.15995000       1.07365000      -2.81829000       0.01771000
C       -6.91390000      -0.09465000      -3.14321000       0.01017000
C       -6.50054000      -0.92168000      -4.26037000       0.04905000
C       -5.26081000      -0.68874000      -4.89133000       0.00498000
C       -4.47200000       0.48166000      -4.54028000       0.01946000
C       -4.22303000       2.67798000      -3.22545000      -0.60698000
C       -8.15366000      -0.50008000      -2.38077000      -0.60142000
C       -4.77248000      -1.69546000      -5.90831000      -0.61103000
H       -4.04650000       0.95773000      -0.60340000       0.41690000
H       -6.14851000      -0.20469000      -0.03679000       0.21349000
H       -4.12892000      -2.43221000       0.30572000       0.24787000
H       -7.03933000       0.29738000       2.00571000       0.21273000
H       -6.77597000       1.05581000       4.34639000       0.21647000
H       -4.51550000       1.10331000       5.39085000       0.21578000
H       -2.53384000       0.38891000       4.06593000       0.21689000
H       -2.80557000      -0.36739000       1.72788000       0.24472000
H       -4.53246000      -3.55056000       2.28433000       0.22406000
H       -6.07371000      -4.62672000       3.90761000       0.21803000
H       -8.53554000      -4.45208000       3.58753000       0.21859000
H       -9.43863000      -3.17080000       1.65599000       0.21582000
H       -7.88346000      -2.10665000       0.04070000       0.21780000
H       -4.93165000       3.50361000      -3.11297000       0.23060000
H       -3.66357000       2.59875000      -2.28494000       0.23289000
H       -3.52066000       2.96967000      -4.00553000       0.22594000
H       -9.05991000      -0.28123000      -2.95929000       0.22899000
H       -8.12344000      -1.57047000      -2.16730000       0.23602000
H       -8.24221000       0.00848000      -1.42199000       0.21996000
H       -3.79560000      -1.44461000      -6.31628000       0.22443000
H       -4.69769000      -2.67950000      -5.43504000       0.26181000
H       -5.47278000      -1.76921000      -6.74902000       0.22265000
H       -3.24433000      -0.44118000      -0.49222000       0.47417000
H       -2.23659000       0.45214000      -2.61178000       0.22831000
C       -6.56281000      -4.80508000      -1.30461000      -0.21011000
C       -7.80196000      -4.62329000      -1.92404000      -0.20531000
C       -6.41576000      -5.67860000      -0.22807000      -0.19290000
C       -8.92081000      -5.28556000      -1.43377000      -0.18717000
H       -7.88586000      -3.96272000      -2.77765000       0.23796000
C       -7.53164000      -6.34148000       0.27587000      -0.17181000
H       -5.43993000      -5.80374000       0.22453000       0.25666000
C       -8.76853000      -6.12388000      -0.32763000       0.06195000
H       -9.89986000      -5.16018000      -1.87908000       0.25123000
H       -7.46051000      -6.99999000       1.13177000       0.25576000
H        1.06862000       0.00713000       0.18050000       0.24052000
O        0.17897000      -2.30657000       0.21103000      -0.57179000
C       -0.43262000      -3.61786000       0.12717000      -0.05199000
H       -1.05117000      -3.77574000       1.01818000       0.17995000
H       -1.08849000      -3.65260000      -0.74691000       0.21864000
O        0.18607000       2.25736000       0.45337000      -0.57841000
C       -0.36627000       3.57968000       0.55503000      -0.04139000
H       -1.06475000       3.61362000       1.39991000       0.18417000
H       -0.93173000       3.80917000      -0.35300000       0.18580000
C        1.85473000       1.57001000      -2.47511000      -0.13309000
C       -0.32203000       2.52461000      -2.84523000      -0.17044000
C        2.44707000       2.81958000      -2.63486000      -0.30071000
H        2.48403000       0.71216000      -2.25265000       0.22312000
C        0.25105000       3.77549000      -3.00887000      -0.25718000
H       -1.39807000       2.43038000      -2.91511000       0.21722000
C        1.64154000       3.93718000      -2.89740000       0.34259000
H        3.52285000       2.91329000      -2.54587000       0.23065000
H       -0.35488000       4.65231000      -3.21448000       0.23015000
H        0.59498000      -0.77620000      -2.39251000       0.25786000
O       -0.99604000      -2.49536000      -2.81267000      -0.43659000
C       -7.35228000      -2.07018000      -4.74367000      -0.62624000
H       -7.51568000      -1.97881000      -5.82374000       0.22787000
H       -6.84640000      -3.02063000      -4.55739000       0.26774000
H       -8.33248000      -2.09134000      -4.26867000       0.21925000
C       -6.59699000       2.04007000      -1.73817000      -0.59874000
H       -5.75740000       2.37688000      -1.12472000       0.22538000
H       -7.04412000       2.93230000      -2.19495000       0.23413000
H       -7.33755000       1.61557000      -1.06361000       0.22539000
C       -3.16325000       0.69855000      -5.26754000      -0.60360000
H       -2.53798000      -0.19447000      -5.20683000       0.23945000
H       -3.35137000       0.90920000      -6.32756000       0.23220000
H       -2.57479000       1.51755000      -4.85930000       0.22297000
C        0.69789000      -4.62411000       0.03073000      -0.60211000
H        0.28703000      -5.63819000      -0.02259000       0.21323000
H        1.29035000      -4.44448000      -0.87232000       0.20776000
H        1.36116000      -4.56073000       0.90040000       0.20203000
C        0.79897000       4.53513000       0.74102000      -0.60277000
H        0.43286000       5.56303000       0.84198000       0.20960000
H        1.37187000       4.27932000       1.63841000       0.20790000
H        1.46821000       4.48796000      -0.12347000       0.20802000
O        2.10159000       5.20826000      -3.05358000      -0.54516000
C        3.49667000       5.44348000      -2.91886000      -0.22116000
H        4.07298000       4.89550000      -3.67619000       0.18013000
H        3.63430000       6.51596000      -3.06683000       0.20016000
H        3.85616000       5.16513000      -1.91919000       0.18061000
N       -9.95807000      -6.78246000       0.23160000       0.50294000
O       -9.80586000      -7.49945000       1.22084000      -0.39037000
O      -11.04133000      -6.57178000      -0.31671000      -0.39691000
