121
R3TS2minorsOMecNMe2.xyz  (col5 = NBO charge)
O       -3.02709000      -1.89556000      -2.91080000      -0.41707000
N       -1.77709000      -1.58039000      -2.75575000       0.47824000
C       -1.40602000      -0.26500000      -2.62806000      -0.16613000
C       -0.08530000       0.06275000      -2.33871000      -0.07672000
C        0.46739000       1.40423000      -2.54439000      -0.12917000
O       -1.88185000       1.50150000      -0.06402000      -0.70660000
C       -0.69403000       1.25649000       0.15251000       0.78954000
C        0.00157000       0.00051000      -0.00864000      -0.50549000
C       -0.67240000      -1.26226000       0.11543000       0.79152000
O       -1.89477000      -1.45029000       0.04740000      -0.71511000
Ru      -4.79365000      -0.71379000      -2.68685000       0.15637000
S       -5.12975000      -3.85862000      -1.91203000       2.25281000
O       -5.19049000      -3.86956000      -3.38898000      -0.95465000
O       -3.94844000      -4.41193000      -1.22311000      -0.94854000
N       -4.17234000      -0.05653000      -0.77792000      -0.74037000
N       -5.49458000      -2.30093000      -1.41727000      -0.87367000
C       -5.18506000      -0.53933000       0.19590000      -0.01969000
C       -5.19360000      -2.07268000       0.02227000      -0.06247000
C       -4.98478000      -0.04380000       1.61476000      -0.05100000
C       -6.10254000       0.39578000       2.33665000      -0.20115000
C       -5.97715000       0.83070000       3.65588000      -0.21315000
C       -4.72267000       0.83991000       4.26914000      -0.21555000
C       -3.60336000       0.40687000       3.55516000      -0.20698000
C       -3.73005000      -0.03610000       2.23765000      -0.20604000
C       -6.19198000      -2.68866000       0.99046000      -0.02479000
C       -5.73476000      -3.30337000       2.15999000      -0.20511000
C       -6.63596000      -3.81365000       3.09631000      -0.20775000
C       -8.00977000      -3.71812000       2.86880000      -0.22468000
C       -8.47461000      -3.10748000       1.70036000      -0.20990000
C       -7.57082000      -2.59227000       0.77307000      -0.21613000
C       -4.91263000       1.35357000      -3.67590000      -0.00072000
C       -6.12887000       1.03054000      -2.94728000       0.01289000
C       -6.86769000      -0.14590000      -3.27683000       0.01067000
C       -6.42415000      -0.98201000      -4.37406000       0.05025000
C       -5.16565000      -0.75377000      -4.96853000       0.00342000
C       -4.39794000       0.43323000      -4.62384000       0.01489000
C       -4.20275000       2.64949000      -3.33213000      -0.60519000
C       -8.11973000      -0.55463000      -2.53749000      -0.60221000
C       -4.64120000      -1.77595000      -5.95108000      -0.61054000
H       -4.02772000       0.94788000      -0.68341000       0.41496000
H       -6.15867000      -0.17590000      -0.14799000       0.21278000
H       -4.18810000      -2.43427000       0.27305000       0.24403000
H       -7.08324000       0.37345000       1.86701000       0.21293000
H       -6.85669000       1.16116000       4.20239000       0.21547000
H       -4.61880000       1.18159000       5.29584000       0.21503000
H       -2.62287000       0.41106000       4.02453000       0.21640000
H       -2.85853000      -0.37291000       1.69153000       0.24451000
H       -4.66476000      -3.37783000       2.33550000       0.22237000
H       -6.26388000      -4.28835000       4.00065000       0.21519000
H       -8.71418000      -4.11859000       3.59393000       0.21179000
H       -9.54262000      -3.04233000       1.50691000       0.21142000
H       -7.92642000      -2.14364000      -0.14730000       0.21915000
H       -4.92135000       3.47215000      -3.26868000       0.22926000
H       -3.68536000       2.59551000      -2.36624000       0.23056000
H       -3.46760000       2.92881000      -4.08597000       0.22416000
H       -9.01761000      -0.32231000      -3.12429000       0.22663000
H       -8.09588000      -1.62785000      -2.33871000       0.23927000
H       -8.21592000      -0.06027000      -1.57176000       0.21896000
H       -3.61143000      -1.58544000      -6.24627000       0.22453000
H       -4.67664000      -2.76838000      -5.49318000       0.26187000
H       -5.25231000      -1.78860000      -6.86278000       0.22089000
H       -3.25025000      -0.46159000      -0.53844000       0.47201000
H       -2.22198000       0.43560000      -2.62821000       0.22642000
C       -6.53367000      -4.81995000      -1.34645000      -0.31397000
C       -7.78312000      -4.65863000      -1.94454000      -0.17941000
C       -6.40502000      -5.65118000      -0.23527000      -0.16679000
C       -8.90308000      -5.28784000      -1.41691000      -0.27982000
H       -7.88461000      -4.02798000      -2.82060000       0.22423000
C       -7.51820000      -6.28570000       0.29901000      -0.26930000
H       -5.43128000      -5.77089000       0.22544000       0.24345000
C       -8.80225000      -6.10387000      -0.26376000       0.21636000
H       -9.86036000      -5.13036000      -1.89877000       0.21971000
H       -7.38490000      -6.89954000       1.18045000       0.22424000
H        1.06635000       0.00847000       0.18786000       0.24276000
O        0.17882000      -2.30359000       0.24613000      -0.55969000
C       -0.44296000      -3.60193000       0.17240000      -0.22816000
H       -1.13656000      -3.74460000       1.00634000       0.18273000
H       -0.99041000      -3.71011000      -0.76765000       0.21754000
H        0.38030000      -4.31542000       0.23289000       0.18419000
O        0.17601000       2.24675000       0.50966000      -0.56531000
C       -0.39444000       3.55163000       0.62375000      -0.22181000
H       -1.19086000       3.56615000       1.37490000       0.18643000
H        0.42677000       4.20433000       0.92587000       0.18908000
H       -0.80371000       3.88340000      -0.33474000       0.18319000
C        1.85801000       1.60572000      -2.43137000      -0.14411000
C       -0.32851000       2.52084000      -2.83767000      -0.16856000
C        2.42307000       2.85764000      -2.60178000      -0.25064000
H        2.49624000       0.75916000      -2.19199000       0.22378000
C        0.22410000       3.78925000      -3.01452000      -0.30643000
H       -1.40202000       2.41016000      -2.92033000       0.21625000
C        1.60866000       3.96521000      -2.89175000       0.34520000
H        3.49328000       3.01300000      -2.51171000       0.23303000
H       -0.42837000       4.62425000      -3.24282000       0.22622000
H        0.62101000      -0.75965000      -2.36810000       0.25824000
O       -0.94309000      -2.49689000      -2.79626000      -0.44345000
C       -7.26075000      -2.13988000      -4.86121000      -0.62823000
H       -7.31508000      -2.12588000      -5.95522000       0.22497000
H       -6.80369000      -3.08550000      -4.55740000       0.27313000
H       -8.28209000      -2.09991000      -4.48243000       0.21813000
C       -6.60058000       2.00870000      -1.89252000      -0.59790000
H       -5.78338000       2.34227000      -1.24732000       0.22435000
H       -7.02156000       2.90180000      -2.37210000       0.23179000
H       -7.37196000       1.59436000      -1.24669000       0.22510000
C       -3.07708000       0.65114000      -5.32876000      -0.60212000
H       -2.43279000      -0.22310000      -5.21543000       0.23938000
H       -3.24326000       0.81162000      -6.40110000       0.23050000
H       -2.51654000       1.49964000      -4.94131000       0.22111000
O        2.25763000       5.15364000      -3.03630000      -0.54509000
C        1.48646000       6.31451000      -3.30392000      -0.22019000
H        0.76637000       6.51467000      -2.49856000       0.17777000
H        2.19798000       7.13997000      -3.36513000       0.20038000
H        0.94632000       6.23038000      -4.25691000       0.17826000
N       -9.92420000      -6.70390000       0.29765000      -0.50443000
C       -9.81594000      -7.26032000       1.63855000      -0.36496000
C      -11.24060000      -6.28144000      -0.14942000      -0.36339000
H      -10.79088000      -7.64236000       1.94834000       0.20565000
H       -9.11306000      -8.10117000       1.65828000       0.20080000
H       -9.47910000      -6.51521000       2.37649000       0.19033000
H      -11.42092000      -5.20497000       0.01055000       0.18386000
H      -11.37829000      -6.49325000      -1.21601000       0.19990000
H      -12.00274000      -6.84289000       0.39502000       0.20708000
