111
R3TS2majorcNO2.xyz  (col5 = NBO charge)
O       -1.57335000      -2.24345000       3.14933000      -0.41973000
N       -2.15662000      -1.15867000       3.01954000       0.48136000
C       -1.47085000       0.01530000       2.74597000      -0.14986000
C       -0.11956000      -0.00244000       2.46882000      -0.05702000
C        0.77796000       1.14909000       2.57224000      -0.09963000
O       -1.89581000      -1.50880000       0.07685000      -0.71941000
C       -0.68685000      -1.27699000      -0.03390000       0.78007000
C       -0.03085000      -0.00715000      -0.03879000      -0.52602000
C       -0.69758000       1.25370000      -0.15550000       0.78169000
O       -1.89965000       1.51851000      -0.00906000      -0.73480000
Ru      -5.07660000       0.27778000       2.45524000       0.18911000
S       -7.33954000      -2.03839000       2.42596000       2.25730000
O       -7.25588000      -1.92718000       3.89273000      -0.94292000
O       -8.52327000      -1.42895000       1.75863000      -0.98025000
N       -4.14005000      -0.06225000       0.59903000      -0.74648000
N       -5.92194000      -1.53269000       1.78709000      -0.87951000
C       -4.93587000      -0.86956000      -0.37313000      -0.02412000
C       -5.64685000      -2.00148000       0.40406000      -0.04669000
C       -5.82404000       0.04408000      -1.19809000      -0.04190000
C       -5.19772000       0.85066000      -2.16263000      -0.21012000
C       -5.93508000       1.74368000      -2.93754000      -0.21000000
C       -7.32021000       1.83545000      -2.76680000      -0.21921000
C       -7.95115000       1.02979000      -1.81846000      -0.21063000
C       -7.20877000       0.14128000      -1.03331000      -0.22470000
C       -4.85296000      -3.30807000       0.36864000      -0.03787000
C       -5.07426000      -4.20553000      -0.68310000      -0.21680000
C       -4.40835000      -5.43172000      -0.72909000      -0.21627000
C       -3.50916000      -5.77486000       0.28404000      -0.22528000
C       -3.27859000      -4.87767000       1.32907000      -0.20951000
C       -3.94349000      -3.65215000       1.37099000      -0.20545000
C       -4.45067000       2.47019000       2.92067000      -0.01267000
C       -4.48285000       1.72882000       4.13071000       0.04340000
C       -5.69125000       1.03530000       4.53980000      -0.03270000
C       -6.86410000       1.17573000       3.76330000       0.08121000
C       -6.79132000       1.75859000       2.44626000      -0.00324000
C       -5.56717000       2.36747000       2.01265000       0.03974000
C       -3.28378000       3.34462000       2.51288000      -0.62655000
C       -5.71749000       0.23081000       5.82027000      -0.60659000
C       -8.07063000       1.87289000       1.65231000      -0.61587000
H       -3.25896000      -0.58019000       0.73426000       0.45850000
H       -4.21026000      -1.33064000      -1.05266000       0.23954000
H       -6.58583000      -2.20092000      -0.12627000       0.22328000
H       -4.11912000       0.78290000      -2.29312000       0.22549000
H       -5.43302000       2.36104000      -3.67763000       0.21980000
H       -7.90125000       2.52541000      -3.37285000       0.21882000
H       -9.02666000       1.09538000      -1.67582000       0.22001000
H       -7.71606000      -0.45103000      -0.27922000       0.24172000
H       -5.79470000      -3.95652000      -1.46032000       0.21307000
H       -4.60719000      -6.12502000      -1.54231000       0.21663000
H       -3.00340000      -6.73661000       0.26199000       0.21595000
H       -2.58337000      -5.12893000       2.12576000       0.21584000
H       -3.78655000      -2.97794000       2.20104000       0.24358000
H       -3.65940000       4.29748000       2.12590000       0.23092000
H       -2.63857000       3.58284000       3.35839000       0.21843000
H       -2.67781000       2.88919000       1.72167000       0.25539000
H       -6.10590000       0.82829000       6.65596000       0.22180000
H       -6.34480000      -0.65149000       5.69156000       0.25181000
H       -4.72357000      -0.12251000       6.09378000       0.22585000
H       -7.91491000       2.29368000       0.66267000       0.22836000
H       -8.54884000       0.89848000       1.53783000       0.25458000
H       -8.76602000       2.53049000       2.19064000       0.22347000
H       -3.79602000       0.78650000       0.14929000       0.43701000
H       -2.09652000       0.88815000       2.71437000       0.23195000
C       -7.42508000      -3.79653000       2.03128000      -0.23523000
C       -6.58639000      -4.67686000       2.71683000      -0.17366000
C       -8.27017000      -4.23205000       1.01002000      -0.19704000
C       -6.55745000      -6.01596000       2.34406000      -0.17483000
H       -5.94221000      -4.30537000       3.50503000       0.25418000
C       -8.25027000      -5.57308000       0.63584000      -0.18370000
H       -8.92128000      -3.52058000       0.51486000       0.25282000
C       -7.37984000      -6.43614000       1.29913000       0.07284000
H       -5.89472000      -6.72403000       2.82379000       0.25798000
H       -8.87639000      -5.95136000      -0.16227000       0.25503000
H        1.04029000      -0.00496000      -0.18742000       0.24059000
O        0.20795000       2.25299000      -0.38883000      -0.56690000
C       -0.32423000       3.57441000      -0.45468000      -0.21901000
H       -1.11972000       3.64510000      -1.20336000       0.18601000
H       -0.72255000       3.88706000       0.51613000       0.17606000
H        0.51556000       4.21520000      -0.72932000       0.19115000
O        0.21327000      -2.29890000      -0.08160000      -0.57168000
C       -0.34482000      -3.60049000       0.14891000      -0.22841000
H       -1.13151000      -3.83171000      -0.57375000       0.19442000
H        0.48921000      -4.29772000       0.04880000       0.18488000
H       -0.77595000      -3.64953000       1.15266000       0.19487000
H        0.35320000      -0.97911000       2.46250000       0.25478000
C        2.15783000       0.95425000       2.37348000      -0.16131000
C        0.32599000       2.44445000       2.87579000      -0.19145000
C        3.04957000       2.01801000       2.45902000      -0.20785000
H        2.52038000      -0.04156000       2.13176000       0.22352000
C        1.21784000       3.51088000       2.96031000      -0.21086000
H       -0.72778000       2.61813000       3.04618000       0.21310000
C        2.58282000       3.30418000       2.74898000      -0.19227000
H        4.11016000       1.84684000       2.29762000       0.22307000
H        0.84659000       4.50501000       3.19504000       0.21871000
H        3.27862000       4.13590000       2.81498000       0.22057000
O       -3.43158000      -1.10850000       3.23654000      -0.43741000
C       -8.21719000       0.77394000       4.29284000      -0.61457000
H       -8.77445000       1.70112000       4.49136000       0.22510000
H       -8.78941000       0.18405000       3.57825000       0.25258000
H       -8.15623000       0.20581000       5.21661000       0.23444000
C       -5.46588000       3.03234000       0.65829000      -0.61504000
H       -5.75910000       4.08803000       0.73563000       0.23146000
H       -4.44713000       2.99844000       0.26714000       0.23237000
H       -6.10796000       2.55508000      -0.07902000       0.24150000
C       -3.28974000       1.64807000       5.05678000      -0.60616000
H       -3.56116000       2.01496000       6.05292000       0.23423000
H       -2.96270000       0.61018000       5.15945000       0.24106000
H       -2.43413000       2.22329000       4.70858000       0.22070000
N       -7.30988000      -7.84272000       0.86577000       0.50365000
O       -8.03214000      -8.18962000      -0.06887000      -0.39147000
O       -6.52913000      -8.58576000       1.45911000      -0.38670000
