113
R3TS2majorsCN.xyz  (col5 = NBO charge)
O       -0.86405000      -2.16691000       3.05039000      -0.50237000
N       -1.42425000      -1.06245000       3.23457000       0.44934000
C       -0.84578000       0.11787000       2.82328000      -0.20034000
C        0.35938000       0.12556000       2.10583000      -0.13709000
C        1.24067000       1.31757000       2.09290000      -0.02801000
O       -1.90059000      -1.45578000       0.05042000      -0.67977000
C       -0.69146000      -1.28158000      -0.02396000       0.80804000
C        0.00226000      -0.00002000       0.00392000      -0.47118000
C       -0.72018000       1.23284000      -0.23017000       0.80622000
O       -1.90077000       1.48380000       0.03939000      -0.70553000
Ru      -5.24629000       0.53098000       2.77589000       0.24706000
S       -7.55641000      -1.68360000       2.91306000       2.24769000
O       -7.50810000      -1.44711000       4.36387000      -0.93541000
O       -8.64453000      -1.04619000       2.13243000      -0.96147000
N       -4.00955000      -0.14297000       1.20049000      -0.77528000
N       -6.06424000      -1.22667000       2.28328000      -0.85088000
C       -4.81491000      -0.90981000       0.20554000      -0.03011000
C       -5.66503000      -1.90917000       1.01561000      -0.05021000
C       -5.57045000       0.05310000      -0.69290000      -0.04058000
C       -4.82361000       0.75824000      -1.64964000      -0.20431000
C       -5.44088000       1.67234000      -2.50206000      -0.21047000
C       -6.82000000       1.88710000      -2.41672000      -0.22001000
C       -7.56893000       1.18597000      -1.47002000      -0.21413000
C       -6.94838000       0.27803000      -0.60593000      -0.22192000
C       -4.89609000      -3.20799000       1.23967000      -0.04061000
C       -5.09333000      -4.27370000       0.35363000      -0.21291000
C       -4.37034000      -5.45870000       0.49468000      -0.21314000
C       -3.43110000      -5.58665000       1.52204000      -0.22468000
C       -3.22282000      -4.52172000       2.40074000      -0.20316000
C       -3.95660000      -3.34222000       2.26587000      -0.21835000
C       -4.26671000       2.63852000       3.14692000       0.00645000
C       -4.34119000       1.94791000       4.38119000       0.03012000
C       -5.61055000       1.38520000       4.81671000       0.01731000
C       -6.79767000       1.65782000       4.08848000       0.02189000
C       -6.68489000       2.19591000       2.75742000       0.05059000
C       -5.40732000       2.65211000       2.26945000       0.01258000
C       -2.99502000       3.29311000       2.65347000      -0.62411000
C       -5.65590000       0.56989000       6.08841000      -0.61109000
C       -7.95148000       2.34224000       1.94782000      -0.61623000
H       -3.34678000      -0.79516000       1.62668000       0.43826000
H       -4.11457000      -1.47488000      -0.41445000       0.25435000
H       -6.55433000      -2.14972000       0.42196000       0.22922000
H       -3.74975000       0.59791000      -1.70640000       0.23003000
H       -4.84835000       2.21214000      -3.23600000       0.21835000
H       -7.30588000       2.59321000      -3.08492000       0.21835000
H       -8.64093000       1.34826000      -1.39258000       0.21994000
H       -7.54434000      -0.22997000       0.14478000       0.24086000
H       -5.83063000      -4.18331000      -0.44081000       0.21391000
H       -4.54308000      -6.28126000      -0.19522000       0.21329000
H       -2.86393000      -6.50770000       1.63149000       0.21356000
H       -2.47592000      -4.58365000       3.18644000       0.22497000
H       -3.78244000      -2.53622000       2.96918000       0.24584000
H       -3.22576000       4.27805000       2.23465000       0.22891000
H       -2.27690000       3.44692000       3.45816000       0.21818000
H       -2.51262000       2.70960000       1.86319000       0.25504000
H       -5.80815000       1.21630000       6.96330000       0.22494000
H       -6.45637000      -0.16658000       6.04153000       0.25075000
H       -4.72316000       0.02183000       6.23086000       0.23372000
H       -7.76517000       2.68816000       0.93445000       0.22870000
H       -8.48585000       1.39087000       1.88938000       0.25322000
H       -8.60889000       3.07068000       2.43978000       0.22843000
H       -3.38945000       0.52336000       0.72291000       0.45677000
H       -1.43982000       0.98710000       3.04522000       0.21677000
C       -7.65791000      -3.44633000       2.64470000      -0.29995000
C       -6.89989000      -4.29187000       3.45882000      -0.16913000
C       -8.41958000      -3.94479000       1.58970000      -0.18848000
C       -6.88683000      -5.65380000       3.18413000      -0.20227000
H       -6.31592000      -3.87936000       4.27376000       0.24514000
C       -8.39753000      -5.31558000       1.33270000      -0.21688000
H       -9.01216000      -3.26553000       0.98598000       0.24339000
C       -7.61778000      -6.18261000       2.10877000       0.00414000
H       -6.27967000      -6.31581000       3.79543000       0.22452000
H       -8.98322000      -5.71451000       0.50833000       0.22067000
C       -7.51864000      -7.65066000       1.77601000      -0.60968000
H       -6.55948000      -7.85993000       1.28408000       0.22618000
H       -7.56259000      -8.27172000       2.67767000       0.22115000
H       -8.31813000      -7.97046000       1.10030000       0.21494000
H        1.02281000      -0.01281000      -0.36016000       0.25060000
O        0.10486000       2.20179000      -0.70630000      -0.55448000
C       -0.46883000       3.50664000      -0.83128000      -0.22262000
H       -1.34538000       3.48874000      -1.48580000       0.19026000
H       -0.76452000       3.89542000       0.14824000       0.18197000
H        0.31699000       4.13104000      -1.25818000       0.19647000
O        0.18748000      -2.31063000      -0.06905000      -0.56321000
C       -0.40259000      -3.60597000       0.14323000      -0.23047000
H       -1.15314000      -3.82310000      -0.62205000       0.18836000
H        0.42511000      -4.31442000       0.08282000       0.18616000
H       -0.87657000      -3.63672000       1.12658000       0.21155000
H        0.87945000      -0.82826000       2.09678000       0.26103000
C        2.58920000       1.16777000       1.72475000      -0.18444000
C        0.78044000       2.60607000       2.41207000      -0.20674000
C        3.44694000       2.25780000       1.66341000      -0.14426000
H        2.96157000       0.17849000       1.47278000       0.23020000
C        1.62564000       3.70695000       2.35302000      -0.14652000
H       -0.25098000       2.75322000       2.70538000       0.22337000
C        2.96830000       3.54298000       1.97318000      -0.19785000
H        4.48515000       2.12601000       1.37624000       0.23608000
H        1.25521000       4.69713000       2.59939000       0.23234000
O       -2.55193000      -0.98737000       3.83288000      -0.53699000
C       -8.17397000       1.39287000       4.64711000      -0.60483000
H       -8.68254000       2.35985000       4.76311000       0.22142000
H       -8.77970000       0.76915000       3.98952000       0.24718000
H       -8.14158000       0.90848000       5.61987000       0.23156000
C       -5.25256000       3.22071000       0.87718000      -0.61242000
H       -5.38872000       4.31093000       0.89405000       0.22686000
H       -4.26424000       3.00774000       0.46659000       0.23670000
H       -5.97454000       2.79805000       0.18163000       0.23880000
C       -3.14126000       1.75675000       5.27974000      -0.61839000
H       -3.40228000       1.98305000       6.31818000       0.22558000
H       -2.79282000       0.72082000       5.21703000       0.26813000
H       -2.30416000       2.39712000       5.00447000       0.21644000
C        3.83931000       4.67769000       1.90295000       0.32464000
N        4.54206000       5.60329000       1.84350000      -0.36657000
