112
R3TS2majorsCNcNO2.xyz  (col5 = NBO charge)
O       -1.60880000      -2.26320000       3.13542000      -0.41333000
N       -2.19708000      -1.18294000       2.99972000       0.48417000
C       -1.50963000      -0.00366000       2.73278000      -0.14342000
C       -0.15858000      -0.01943000       2.46660000      -0.07911000
C        0.72773000       1.14233000       2.55685000      -0.05913000
O       -1.89670000      -1.50303000       0.07751000      -0.71560000
C       -0.68744000      -1.27704000      -0.03574000       0.78028000
C       -0.02847000      -0.00684000      -0.03627000      -0.51790000
C       -0.69805000       1.25395000      -0.15761000       0.77975000
O       -1.90009000       1.51223000      -0.00828000      -0.72905000
Ru      -5.13523000       0.25774000       2.38694000       0.18977000
S       -7.37724000      -2.07281000       2.32198000       2.25669000
O       -7.31394000      -1.96746000       3.78996000      -0.94201000
O       -8.55178000      -1.46380000       1.63947000      -0.97867000
N       -4.16628000      -0.06481000       0.54260000      -0.74609000
N       -5.95034000      -1.55534000       1.70599000      -0.87859000
C       -4.93945000      -0.88187000      -0.44062000      -0.02360000
C       -5.65073000      -2.02062000       0.32648000      -0.04701000
C       -5.82496000       0.02406000      -1.27707000      -0.04314000
C       -5.19397000       0.83364000      -2.23603000      -0.21068000
C       -5.92867000       1.72265000      -3.01813000      -0.20956000
C       -7.31577000       1.80695000      -2.86043000      -0.21829000
C       -7.95137000       0.99774000      -1.91823000      -0.21000000
C       -7.21175000       0.11349000      -1.12573000      -0.22479000
C       -4.84618000      -3.32104000       0.30090000      -0.03801000
C       -5.03561000      -4.21113000      -0.76338000      -0.21655000
C       -4.36007000      -5.43222000      -0.80344000      -0.21560000
C       -3.48359000      -5.77808000       0.22858000      -0.22488000
C       -3.28491000      -4.88841000       1.28645000      -0.20946000
C       -3.95911000      -3.66771000       1.32215000      -0.20625000
C       -4.52031000       2.44943000       2.87227000      -0.01236000
C       -4.56501000       1.70151000       4.07776000       0.04329000
C       -5.77594000       1.00094000       4.46791000      -0.03037000
C       -6.93948000       1.13983000       3.67739000       0.08057000
C       -6.85082000       1.72764000       2.36328000       0.00041000
C       -5.62410000       2.34647000       1.94931000       0.04014000
C       -3.35069000       3.32955000       2.48406000      -0.62642000
C       -5.81633000       0.19085000       5.74449000      -0.60707000
C       -8.11903000       1.83930000       1.55162000      -0.61617000
H       -3.27820000      -0.56729000       0.68876000       0.45832000
H       -4.20004000      -1.33598000      -1.10987000       0.23900000
H       -6.58030000      -2.22704000      -0.21746000       0.22390000
H       -4.11404000       0.77051000      -2.35800000       0.22498000
H       -5.42310000       2.34211000      -3.75399000       0.22022000
H       -7.89470000       2.49355000      -3.47216000       0.21934000
H       -9.02859000       1.05704000      -1.78638000       0.22039000
H       -7.72344000      -0.48188000      -0.37715000       0.24197000
H       -5.73868000      -3.96055000      -1.55584000       0.21346000
H       -4.53411000      -6.11979000      -1.62706000       0.21714000
H       -2.97100000      -6.73625000       0.21093000       0.21643000
H       -2.60782000      -5.14204000       2.09789000       0.21604000
H       -3.82738000      -2.99961000       2.16146000       0.24277000
H       -3.72390000       4.28265000       2.09562000       0.23237000
H       -2.71924000       3.56769000       3.34015000       0.21809000
H       -2.73194000       2.87957000       1.69960000       0.25425000
H       -6.22638000       0.78136000       6.57465000       0.22281000
H       -6.43246000      -0.69703000       5.60100000       0.25251000
H       -4.82425000      -0.15322000       6.03562000       0.22565000
H       -7.95080000       2.26147000       0.56465000       0.22860000
H       -8.59319000       0.86391000       1.42967000       0.25480000
H       -8.82300000       2.49471000       2.08133000       0.22441000
H       -3.83674000       0.79193000       0.09833000       0.43456000
H       -2.13984000       0.86588000       2.69103000       0.23304000
C       -7.44717000      -3.82853000       1.91621000      -0.23615000
C       -6.61952000      -4.70923000       2.61435000      -0.17350000
C       -8.26853000      -4.26101000       0.87440000      -0.19653000
C       -6.57601000      -6.04571000       2.23338000      -0.17478000
H       -5.99505000      -4.34015000       3.41936000       0.25409000
C       -8.23351000      -5.59934000       0.49171000      -0.18350000
H       -8.91296000      -3.54974000       0.37029000       0.25295000
C       -7.37286000      -6.46235000       1.16764000       0.07354000
H       -5.92089000      -6.75407000       2.72306000       0.25821000
H       -8.84048000      -5.97535000      -0.32211000       0.25544000
H        1.04193000      -0.00575000      -0.19115000       0.24085000
O        0.20420000       2.25422000      -0.39404000      -0.56749000
C       -0.33550000       3.57231000      -0.48938000      -0.21989000
H       -1.10712000       3.62802000      -1.26371000       0.18752000
H       -0.76869000       3.89079000       0.46432000       0.17562000
H        0.50761000       4.21644000      -0.74427000       0.19380000
O        0.20944000      -2.29914000      -0.08866000      -0.57002000
C       -0.35158000      -3.60280000       0.12824000      -0.22848000
H       -1.13848000      -3.82389000      -0.59713000       0.19461000
H        0.48112000      -4.30020000       0.02095000       0.18630000
H       -0.78315000      -3.66100000       1.13125000       0.19517000
H        0.32218000      -0.99208000       2.47356000       0.25833000
C        2.11079000       0.96319000       2.35899000      -0.16471000
C        0.25886000       2.43660000       2.84196000      -0.19416000
C        2.98924000       2.03408000       2.41564000      -0.14673000
H        2.48836000      -0.03044000       2.13482000       0.23261000
C        1.12734000       3.51802000       2.90076000      -0.14948000
H       -0.79550000       2.60006000       3.01489000       0.22266000
C        2.50169000       3.32736000       2.68159000      -0.18469000
H        4.05139000       1.88391000       2.25269000       0.23849000
H        0.75123000       4.51298000       3.11673000       0.23416000
O       -3.47035000      -1.13192000       3.19771000      -0.43097000
C       -8.29735000       0.72886000       4.18662000      -0.61479000
H       -8.86209000       1.65222000       4.38140000       0.22582000
H       -8.85650000       0.13925000       3.46156000       0.25276000
H       -8.24613000       0.15702000       5.10864000       0.23490000
C       -5.50981000       3.01700000       0.59877000      -0.61547000
H       -5.82144000       4.06746000       0.67392000       0.23270000
H       -4.48421000       3.00122000       0.22485000       0.23159000
H       -6.13143000       2.53169000      -0.15101000       0.24210000
C       -3.38340000       1.62075000       5.01832000      -0.60591000
H       -3.66746000       1.98513000       6.01179000       0.23558000
H       -3.05551000       0.58340000       5.12310000       0.24074000
H       -2.52510000       2.19923000       4.68218000       0.21921000
C        3.39768000       4.44296000       2.73249000       0.32154000
N        4.12094000       5.35360000       2.77230000      -0.35778000
N       -7.28512000      -7.86556000       0.72523000       0.50370000
O       -7.98501000      -8.20900000      -0.22726000      -0.39064000
O       -6.51246000      -8.60791000       1.32961000      -0.38622000
