125
R3TS2minorsNMe2cNMe2.xyz  (col5 = NBO charge)
O       -2.94282000      -1.90315000      -2.96816000      -0.42767000
N       -1.69831000      -1.57272000      -2.76956000       0.47134000
C       -1.34443000      -0.25970000      -2.63326000      -0.17001000
C       -0.03037000       0.08218000      -2.30189000      -0.07651000
C        0.51017000       1.42508000      -2.51439000      -0.18440000
O       -1.88077000       1.50220000      -0.06750000      -0.70340000
C       -0.69615000       1.25550000       0.15975000       0.79188000
C        0.00269000       0.00098000      -0.01571000      -0.50109000
C       -0.67287000      -1.26284000       0.11896000       0.79502000
O       -1.89439000      -1.44988000       0.04717000      -0.71261000
Ru      -4.71730000      -0.73430000      -2.79194000       0.15702000
S       -5.05081000      -3.87818000      -2.00620000       2.25339000
O       -5.07015000      -3.90129000      -3.48400000      -0.95441000
O       -3.88677000      -4.41966000      -1.27931000      -0.94882000
N       -4.14839000      -0.06578000      -0.86947000      -0.74031000
N       -5.44146000      -2.32072000      -1.53283000      -0.87408000
C       -5.18816000      -0.54631000       0.07664000      -0.01980000
C       -5.18495000      -2.08105000      -0.08666000      -0.06267000
C       -5.03457000      -0.04041000       1.49769000      -0.05067000
C       -6.17608000       0.40131000       2.18007000      -0.20115000
C       -6.09458000       0.84565000       3.49960000      -0.21353000
C       -4.86062000       0.86225000       4.15304000      -0.21601000
C       -3.71783000       0.42724000       3.47851000      -0.20741000
C       -3.80063000      -0.02514000       2.16070000      -0.20578000
C       -6.20918000      -2.69459000       0.85593000      -0.02421000
C       -5.78460000      -3.29634000       2.04441000      -0.20529000
C       -6.71111000      -3.80389000       2.95720000      -0.20796000
C       -8.07785000      -3.71866000       2.68695000      -0.22511000
C       -8.51007000      -3.12108000       1.49940000      -0.21005000
C       -7.58123000      -2.60858000       0.59563000      -0.21620000
C       -4.82794000       1.32857000      -3.79008000      -0.00019000
C       -6.06326000       0.99743000      -3.09777000       0.01090000
C       -6.78030000      -0.18688000      -3.44453000       0.01010000
C       -6.29433000      -1.02427000      -4.52273000       0.04861000
C       -5.02084000      -0.78561000      -5.08060000       0.00420000
C       -4.27574000       0.41075000      -4.71928000       0.01459000
C       -4.14247000       2.63293000      -3.42986000      -0.60493000
C       -8.05011000      -0.60508000      -2.74166000      -0.60211000
C       -4.45618000      -1.80795000      -6.04043000      -0.61025000
H       -4.00830000       0.93939000      -0.77528000       0.41450000
H       -6.15231000      -0.18965000      -0.29945000       0.21271000
H       -4.18599000      -2.43634000       0.19691000       0.24430000
H       -7.14098000       0.37332000       1.67903000       0.21282000
H       -6.99216000       1.17757000       4.01506000       0.21525000
H       -4.79083000       1.21117000       5.18022000       0.21472000
H       -2.75302000       0.43725000       3.97932000       0.21598000
H       -2.91116000      -0.36297000       1.64497000       0.24532000
H       -4.72006000      -3.36270000       2.25323000       0.22237000
H       -6.36418000      -4.26847000       3.87671000       0.21498000
H       -8.80187000      -4.11702000       3.39373000       0.21160000
H       -9.57202000      -3.06410000       1.27270000       0.21126000
H       -7.91083000      -2.17037000      -0.33926000       0.21933000
H       -4.86958000       3.45035000      -3.40445000       0.22858000
H       -3.66621000       2.59225000      -2.44255000       0.22975000
H       -3.37748000       2.91094000      -4.15363000       0.22491000
H       -8.93219000      -0.38544000      -3.35669000       0.22618000
H       -8.02120000      -1.67699000      -2.53646000       0.23905000
H       -8.18081000      -0.10692000      -1.78192000       0.21869000
H       -3.42023000      -1.60756000      -6.30578000       0.22472000
H       -4.49399000      -2.79774000      -5.57694000       0.26183000
H       -5.03974000      -1.83333000      -6.96977000       0.22017000
H       -3.23332000      -0.46843000      -0.60139000       0.47171000
H       -2.16387000       0.43612000      -2.65965000       0.22344000
C       -6.46429000      -4.84573000      -1.47408000      -0.31309000
C       -7.69645000      -4.69864000      -2.11039000      -0.17965000
C       -6.36322000      -5.66640000      -0.35236000      -0.16728000
C       -8.82744000      -5.33083000      -1.61034000      -0.27979000
H       -7.77585000      -4.07657000      -2.99486000       0.22436000
C       -7.48760000      -6.30383000       0.15459000      -0.26933000
H       -5.40275000      -5.77530000       0.13797000       0.24333000
C       -8.75549000      -6.13561000      -0.44732000       0.21572000
H       -9.77105000      -5.18410000      -2.12171000       0.21954000
H       -7.37642000      -6.90870000       1.04526000       0.22402000
H        1.06433000       0.00895000       0.19823000       0.24292000
O        0.17767000      -2.30167000       0.26501000      -0.55883000
C       -0.44228000      -3.60107000       0.18750000      -0.22866000
H       -1.14216000      -3.74341000       1.01624000       0.18211000
H       -0.98128000      -3.70950000      -0.75731000       0.21971000
H        0.38135000      -4.31352000       0.25538000       0.18368000
O        0.16921000       2.23981000       0.54254000      -0.56533000
C       -0.39928000       3.54620000       0.65228000      -0.22285000
H       -1.22544000       3.55485000       1.37048000       0.18641000
H        0.41237000       4.19003000       0.99693000       0.18726000
H       -0.76554000       3.89320000      -0.31818000       0.18538000
C        1.89215000       1.65120000      -2.39219000      -0.13699000
C       -0.29087000       2.54016000      -2.81232000      -0.06685000
C        2.45060000       2.90866000      -2.55691000      -0.27608000
H        2.54216000       0.81574000      -2.14345000       0.21943000
C        0.24898000       3.80741000      -2.98335000      -0.32310000
H       -1.36397000       2.42402000      -2.89674000       0.20306000
C        1.64171000       4.03107000      -2.86166000       0.22113000
H        3.52168000       3.01839000      -2.43985000       0.22412000
H       -0.42195000       4.62759000      -3.20938000       0.21961000
H        0.68366000      -0.73380000      -2.32926000       0.25703000
O       -0.85755000      -2.48653000      -2.77596000      -0.45658000
C       -7.10390000      -2.19336000      -5.02890000      -0.62795000
H       -7.12479000      -2.18577000      -6.12414000       0.22448000
H       -6.64718000      -3.13271000      -4.70572000       0.27309000
H       -8.13682000      -2.16165000      -4.68195000       0.21767000
C       -6.57516000       1.97556000      -2.06182000      -0.59755000
H       -5.78193000       2.31288000      -1.38911000       0.22421000
H       -6.98247000       2.86662000      -2.55676000       0.23120000
H       -7.36700000       1.55929000      -1.44248000       0.22459000
C       -2.93626000       0.63889000      -5.38472000      -0.60265000
H       -2.28795000      -0.22892000      -5.24782000       0.24006000
H       -3.07140000       0.79420000      -6.46223000       0.22941000
H       -2.39506000       1.49336000      -4.98312000       0.22190000
N        2.18943000       5.29108000      -3.03934000      -0.49559000
C        3.59064000       5.51165000      -2.71963000      -0.36508000
C        1.30812000       6.44324000      -3.12689000      -0.36422000
H        3.84764000       6.55176000      -2.92880000       0.20824000
H        3.82131000       5.30342000      -1.66297000       0.19077000
H        4.23836000       4.88062000      -3.33984000       0.20106000
H        0.64499000       6.36749000      -3.99752000       0.19867000
H        0.68005000       6.56299000      -2.22962000       0.18894000
H        1.90765000       7.34725000      -3.24854000       0.20931000
N       -9.89013000      -6.73825000       0.08653000      -0.50497000
C       -9.81802000      -7.27764000       1.43680000      -0.36498000
C      -11.19508000      -6.32427000      -0.40024000      -0.36339000
H      -10.79896000      -7.66371000       1.72182000       0.20544000
H       -9.10986000      -8.11271000       1.48764000       0.20075000
H       -9.50890000      -6.52130000       2.17553000       0.19021000
H      -11.38420000      -5.24740000      -0.25317000       0.18371000
H      -11.30186000      -6.54414000      -1.46870000       0.19988000
H      -11.97001000      -6.88517000       0.12650000       0.20686000
