118
R3TS20minorsCNcNO2.xyz  (col5 = NBO charge)
O       -3.27153000      -1.86691000      -2.73888000      -0.39766000
N       -2.00897000      -1.60565000      -2.70626000       0.49179000
C       -1.58013000      -0.29099000      -2.60907000      -0.14300000
C       -0.24160000      -0.01187000      -2.44514000      -0.09011000
C        0.34371000       1.31708000      -2.62929000      -0.05873000
O       -1.88552000       1.49469000      -0.05530000      -0.71727000
C       -0.68776000       1.26062000       0.13258000       0.78083000
C       -0.00031000      -0.00066000       0.01350000      -0.51353000
C       -0.67049000      -1.26132000       0.10164000       0.78259000
O       -1.89740000      -1.44737000       0.05026000      -0.72700000
Ru      -4.99772000      -0.64419000      -2.35997000       0.15685000
S       -5.31820000      -3.79555000      -1.62492000       2.25629000
O       -5.50862000      -3.78568000      -3.08858000      -0.94555000
O       -4.11848000      -4.41894000      -1.03966000      -0.94006000
N       -4.22347000      -0.02786000      -0.49540000      -0.74146000
N       -5.59880000      -2.25804000      -1.06441000      -0.87828000
C       -5.14207000      -0.53764000       0.55571000      -0.01998000
C       -5.16084000      -2.06429000       0.34832000      -0.06182000
C       -4.80910000      -0.07737000       1.96106000      -0.05390000
C       -5.85404000       0.34050000       2.79594000      -0.20102000
C       -5.60365000       0.74524000       4.10696000      -0.21123000
C       -4.29628000       0.74530000       4.59745000      -0.21286000
C       -3.24916000       0.33356000       3.77034000      -0.20532000
C       -3.50051000      -0.07921000       2.46108000      -0.20650000
C       -6.06077000      -2.72910000       1.37445000      -0.03561000
C       -5.49773000      -3.46659000       2.41971000      -0.20388000
C       -6.30988000      -4.07038000       3.38199000      -0.20722000
C       -7.69791000      -3.94287000       3.30616000      -0.21687000
C       -8.26778000      -3.19675000       2.26983000      -0.21141000
C       -7.45276000      -2.59152000       1.31516000      -0.21935000
C       -5.14045000       1.44083000      -3.29848000       0.00287000
C       -6.29586000       1.13919000      -2.47018000       0.02147000
C       -7.09457000      -0.01250000      -2.74851000       0.01215000
C       -6.77923000      -0.83772000      -3.89828000       0.05180000
C       -5.57917000      -0.62830000      -4.60842000       0.00408000
C       -4.74221000       0.52167000      -4.30342000       0.01940000
C       -4.35788000       2.70662000      -3.00112000      -0.60782000
C       -8.28810000      -0.39591000      -1.90531000      -0.60170000
C       -5.18572000      -1.63506000      -5.66559000      -0.61149000
H       -4.08038000       0.97588000      -0.39482000       0.41778000
H       -6.14339000      -0.16844000       0.31194000       0.21393000
H       -4.13456000      -2.42534000       0.48787000       0.24636000
H       -6.87504000       0.32761000       2.42151000       0.21306000
H       -6.42720000       1.06001000       4.74235000       0.21704000
H       -4.09557000       1.06383000       5.61698000       0.21650000
H       -2.22849000       0.33111000       4.14396000       0.21765000
H       -2.68402000      -0.39991000       1.82746000       0.24221000
H       -4.41734000      -3.57340000       2.47104000       0.22384000
H       -5.85862000      -4.64729000       4.18486000       0.21845000
H       -8.33320000      -4.42501000       4.04405000       0.21903000
H       -9.34812000      -3.09912000       2.20031000       0.21620000
H       -7.89310000      -2.03719000       0.49303000       0.21768000
H       -5.03940000       3.54514000      -2.83203000       0.23173000
H       -3.73340000       2.60847000      -2.10410000       0.23410000
H       -3.70980000       2.99145000      -3.82950000       0.22493000
H       -9.22603000      -0.14665000      -2.41706000       0.22995000
H       -8.27112000      -1.46911000      -1.70547000       0.23642000
H       -8.29630000       0.10315000      -0.93759000       0.22049000
H       -4.22525000      -1.41264000      -6.12582000       0.22445000
H       -5.12034000      -2.62901000      -5.21252000       0.26116000
H       -5.93486000      -1.66954000      -6.46584000       0.22420000
H       -3.27911000      -0.42684000      -0.34609000       0.47388000
H       -2.37394000       0.43126000      -2.53761000       0.23407000
C       -6.72295000      -4.74325000      -0.97498000      -0.21134000
C       -7.99784000      -4.52838000      -1.50464000      -0.20471000
C       -6.51873000      -5.63573000       0.07630000      -0.19194000
C       -9.09297000      -5.17733000      -0.94742000      -0.18701000
H       -8.12798000      -3.85325000      -2.34087000       0.23780000
C       -7.61020000      -6.28547000       0.64666000      -0.17169000
H       -5.51680000      -5.78627000       0.45860000       0.25692000
C       -8.88102000      -6.03529000       0.13335000       0.06299000
H      -10.09778000      -5.02703000      -1.32200000       0.25168000
H       -7.49323000      -6.95877000       1.48585000       0.25622000
H        1.07186000       0.00626000       0.16109000       0.24006000
O        0.18013000      -2.30900000       0.17487000      -0.57306000
C       -0.43616000      -3.61901000       0.11126000      -0.05087000
H       -1.05641000      -3.76089000       1.00359000       0.18192000
H       -1.09384000      -3.66491000      -0.76140000       0.21374000
O        0.19227000       2.26439000       0.41246000      -0.57990000
C       -0.36577000       3.58270000       0.54663000      -0.04101000
H       -1.05876000       3.59338000       1.39638000       0.18612000
H       -0.94164000       3.82765000      -0.35137000       0.18151000
C        1.74314000       1.46213000      -2.58233000      -0.16317000
C       -0.43874000       2.46588000      -2.85061000      -0.19245000
C        2.34376000       2.70239000      -2.73796000      -0.14833000
H        2.35942000       0.58594000      -2.40235000       0.23198000
C        0.15010000       3.71305000      -3.00821000      -0.15415000
H       -1.51717000       2.38735000      -2.88201000       0.22491000
C        1.54810000       3.84335000      -2.94958000      -0.19016000
H        3.42327000       2.80136000      -2.69227000       0.23796000
H       -0.46358000       4.59333000      -3.17114000       0.23421000
H        0.43896000      -0.85531000      -2.48141000       0.26014000
O       -1.21205000      -2.54000000      -2.83801000      -0.41093000
C       -7.68916000      -1.96096000      -4.33125000      -0.62689000
H       -7.91514000      -1.86129000      -5.39911000       0.22892000
H       -7.19832000      -2.92528000      -4.17868000       0.26786000
H       -8.63877000      -1.95758000      -3.79735000       0.22008000
C       -6.64114000       2.10791000      -1.35950000      -0.59945000
H       -5.75547000       2.43607000      -0.80969000       0.22560000
H       -7.11165000       3.00483000      -1.78227000       0.23550000
H       -7.33433000       1.69016000      -0.63252000       0.22620000
C       -3.48144000       0.71572000      -5.11686000      -0.60312000
H       -2.87252000      -0.19063000      -5.10685000       0.23750000
H       -3.73649000       0.93840000      -6.16015000       0.23445000
H       -2.85019000       1.52033000      -4.74541000       0.22166000
C        0.69002000      -4.63155000       0.03139000      -0.60220000
H        0.27463000      -5.64432000      -0.00832000       0.21396000
H        1.28731000      -4.46865000      -0.87172000       0.20700000
H        1.35054000      -4.55854000       0.90217000       0.20366000
C        0.79500000       4.54032000       0.74588000      -0.60317000
H        0.42462000       5.56473000       0.86280000       0.21154000
H        1.36894000       4.27379000       1.63917000       0.21020000
H        1.46783000       4.51237000      -0.11664000       0.20838000
C        2.15405000       5.13263000      -3.09395000       0.32152000
N        2.64065000       6.18375000      -3.20499000      -0.35878000
N      -10.04240000      -6.68028000       0.76456000       0.50299000
O       -9.83595000      -7.41410000       1.73107000      -0.38946000
O      -11.15595000      -6.44115000       0.29481000      -0.39602000
