112
R3TS2minorsCNcNO2.xyz  (col5 = NBO charge)
O       -3.22432000      -1.88132000      -2.77120000      -0.40207000
N       -1.96314000      -1.60941000      -2.71198000       0.48918000
C       -1.54561000      -0.29447000      -2.60887000      -0.14799000
C       -0.21014000      -0.00630000      -2.41209000      -0.09292000
C        0.36892000       1.32608000      -2.60445000      -0.05819000
O       -1.88409000       1.49740000      -0.05640000      -0.71059000
C       -0.68979000       1.25954000       0.13803000       0.78262000
C        0.00019000      -0.00063000       0.00415000      -0.50794000
C       -0.67168000      -1.26097000       0.11041000       0.78425000
O       -1.89612000      -1.44939000       0.04649000      -0.72145000
Ru      -4.95970000      -0.66325000      -2.43600000       0.15559000
S       -5.29113000      -3.80654000      -1.67056000       2.25631000
O       -5.45060000      -3.81416000      -3.13778000      -0.94532000
O       -4.10372000      -4.42154000      -1.05243000      -0.93978000
N       -4.21956000      -0.02585000      -0.56374000      -0.74070000
N       -5.58478000      -2.26259000      -1.13415000      -0.87813000
C       -5.15972000      -0.52320000       0.47512000      -0.01992000
C       -5.17719000      -2.05180000       0.28501000      -0.06177000
C       -4.85247000      -0.04816000       1.88111000      -0.05416000
C       -5.90477000       0.42337000       2.67677000      -0.20069000
C       -5.67762000       0.84363000       3.98734000      -0.21087000
C       -4.38614000       0.80436000       4.51646000      -0.21229000
C       -3.33142000       0.33816000       3.72855000      -0.20523000
C       -3.55995000      -0.08937000       2.42004000      -0.20634000
C       -6.09984000      -2.70133000       1.30096000      -0.03583000
C       -5.56017000      -3.42495000       2.36805000      -0.20388000
C       -6.39326000      -4.01511000       3.32079000      -0.20721000
C       -7.77922000      -3.88753000       3.21358000      -0.21666000
C       -8.32590000      -3.15473000       2.15552000      -0.21110000
C       -7.49002000      -2.56300000       1.21042000      -0.21925000
C       -5.09175000       1.40875000      -3.40506000       0.00193000
C       -6.26295000       1.11479000      -2.59646000       0.02094000
C       -7.05194000      -0.04314000      -2.87485000       0.01185000
C       -6.70995000      -0.88284000      -4.00637000       0.05193000
C       -5.49657000      -0.67896000      -4.69520000       0.00494000
C       -4.66914000       0.47722000      -4.38838000       0.01927000
C       -4.32299000       2.68368000      -3.11198000      -0.60781000
C       -8.26057000      -0.42029000      -2.05061000      -0.60215000
C       -5.07901000      -1.69860000      -5.73060000      -0.61162000
H       -4.07782000       0.97886000      -0.47045000       0.41687000
H       -6.15513000      -0.15436000       0.20820000       0.21399000
H       -4.15499000      -2.41335000       0.45134000       0.24572000
H       -6.91419000       0.44187000       2.27216000       0.21270000
H       -6.50685000       1.20060000       4.59229000       0.21724000
H       -4.20340000       1.13420000       5.53576000       0.21677000
H       -2.32312000       0.30444000       4.13299000       0.21767000
H       -2.73840000      -0.45254000       1.81627000       0.24134000
H       -4.48127000      -3.53192000       2.44409000       0.22353000
H       -5.95988000      -4.58156000       4.14076000       0.21851000
H       -8.43068000      -4.35929000       3.94403000       0.21913000
H       -9.40438000      -3.05696000       2.06167000       0.21628000
H       -7.91219000      -2.01917000       0.37199000       0.21776000
H       -5.01288000       3.52225000      -2.98060000       0.23250000
H       -3.72549000       2.60763000      -2.19485000       0.23260000
H       -3.65150000       2.95405000      -3.92633000       0.22529000
H       -9.18915000      -0.18877000      -2.58704000       0.23008000
H       -8.23877000      -1.48945000      -1.83007000       0.23692000
H       -8.29406000       0.09686000      -1.09296000       0.22040000
H       -4.11745000      -1.47089000      -6.18594000       0.22434000
H       -5.00492000      -2.68353000      -5.25910000       0.26177000
H       -5.81991000      -1.75773000      -6.53689000       0.22423000
H       -3.27957000      -0.42433000      -0.39126000       0.47291000
H       -2.34452000       0.42381000      -2.55664000       0.23150000
C       -6.70896000      -4.74667000      -1.03844000      -0.21145000
C       -7.97192000      -4.54121000      -1.59949000      -0.20495000
C       -6.52764000      -5.62259000       0.03082000      -0.19196000
C       -9.07898000      -5.18132000      -1.05578000      -0.18696000
H       -8.08352000      -3.88058000      -2.44981000       0.23786000
C       -7.63127000      -6.26350000       0.58762000      -0.17161000
H       -5.53418000      -5.76708000       0.43684000       0.25684000
C       -8.89068000      -6.02146000       0.04321000       0.06306000
H      -10.07538000      -5.03748000      -1.45460000       0.25167000
H       -7.53255000      -6.92343000       1.43966000       0.25628000
H        1.07052000       0.00654000       0.16533000       0.24222000
O        0.18033000      -2.30543000       0.21634000      -0.56035000
C       -0.44170000      -3.60349000       0.15707000      -0.22689000
H       -1.12756000      -3.74129000       0.99817000       0.18420000
H       -0.99896000      -3.71913000      -0.77658000       0.21167000
H        0.38150000      -4.31701000       0.21381000       0.18654000
O        0.18793000       2.25932000       0.44231000      -0.56672000
C       -0.38588000       3.56190000       0.58178000      -0.22126000
H       -1.11753000       3.57895000       1.39599000       0.18761000
H        0.44932000       4.22744000       0.80552000       0.19218000
H       -0.87824000       3.87490000      -0.34295000       0.18174000
C        1.76575000       1.48324000      -2.53419000      -0.16465000
C       -0.41858000       2.46537000      -2.85355000      -0.19475000
C        2.35902000       2.72671000      -2.69416000      -0.14662000
H        2.38585000       0.61436000      -2.33290000       0.23194000
C        0.16302000       3.71534000      -3.01790000      -0.15351000
H       -1.49543000       2.37701000      -2.90583000       0.22418000
C        1.55847000       3.85815000      -2.93511000      -0.18827000
H        3.43680000       2.83486000      -2.63142000       0.23798000
H       -0.45465000       4.58765000      -3.20704000       0.23405000
H        0.47604000      -0.84516000      -2.44873000       0.26092000
O       -1.15782000      -2.54036000      -2.82182000      -0.41708000
C       -7.60962000      -2.01164000      -4.44624000      -0.62654000
H       -7.82914000      -1.91050000      -5.51551000       0.22915000
H       -7.11494000      -2.97346000      -4.29245000       0.26751000
H       -8.56285000      -2.01536000      -3.91905000       0.22010000
C       -6.63347000       2.09792000      -1.50681000      -0.59931000
H       -5.76009000       2.43538000      -0.94315000       0.22521000
H       -7.09671000       2.98808000      -1.95133000       0.23563000
H       -7.34095000       1.68848000      -0.78892000       0.22615000
C       -3.39107000       0.66319000      -5.17620000      -0.60328000
H       -2.78384000      -0.24375000      -5.14434000       0.23769000
H       -3.62300000       0.87693000      -6.22676000       0.23461000
H       -2.76681000       1.47007000      -4.79791000       0.22166000
C        2.15732000       5.14908000      -3.09415000       0.32223000
N        2.63799000       6.20109000      -3.22127000      -0.35938000
N      -10.06568000      -6.65580000       0.65985000       0.50297000
O       -9.88039000      -7.37399000       1.64224000      -0.38937000
O      -11.16883000      -6.42376000       0.16277000      -0.39597000
