119
R3TS20majorsNO2cNO2.xyz  (col5 = NBO charge)
O       -1.76909000      -2.18511000       3.27420000      -0.40824000
N       -2.32886000      -1.10916000       3.03444000       0.48873000
C       -1.60553000       0.04058000       2.72673000      -0.13965000
C       -0.24819000      -0.01867000       2.51326000      -0.07828000
C        0.66411000       1.12265000       2.57974000      -0.05035000
O       -1.89166000      -1.51394000       0.10662000      -0.71949000
C       -0.69255000      -1.27879000      -0.07645000       0.78303000
C       -0.03361000      -0.00617000      -0.01970000      -0.52123000
C       -0.69308000       1.25944000      -0.14326000       0.77874000
O       -1.89985000       1.51873000      -0.02760000      -0.73547000
Ru      -5.20500000       0.34700000       2.24521000       0.18690000
S       -7.45898000      -1.97757000       2.15019000       2.25741000
O       -7.45257000      -1.83000000       3.61597000      -0.94234000
O       -8.60667000      -1.39038000       1.40601000      -0.97824000
N       -4.16781000      -0.03482000       0.44863000      -0.74816000
N       -6.01036000      -1.47720000       1.57490000      -0.88071000
C       -4.91369000      -0.86362000      -0.54454000      -0.02305000
C       -5.65451000      -1.98183000       0.22344000      -0.04728000
C       -5.76421000       0.02927000      -1.42943000      -0.04337000
C       -5.09489000       0.81921000      -2.37881000      -0.21046000
C       -5.79709000       1.69189000      -3.20763000      -0.20964000
C       -7.18942000       1.77880000      -3.10731000      -0.21826000
C       -7.86259000       0.98867000      -2.17513000      -0.20994000
C       -7.15574000       0.12109000      -1.33564000      -0.22419000
C       -4.83906000      -3.27516000       0.26554000      -0.03663000
C       -4.95314000      -4.18128000      -0.79588000      -0.21714000
C       -4.25336000      -5.38940000      -0.78269000      -0.21513000
C       -3.42751000      -5.70493000       0.29961000      -0.22512000
C       -3.30474000      -4.79987000       1.35605000      -0.21392000
C       -4.00555000      -3.59418000       1.33932000      -0.20534000
C       -4.58977000       2.54462000       2.70056000      -0.01087000
C       -4.68941000       1.82505000       3.92011000       0.04298000
C       -5.92289000       1.14833000       4.27984000      -0.02959000
C       -7.05124000       1.27460000       3.43787000       0.08063000
C       -6.90472000       1.83037000       2.11489000      -0.00042000
C       -5.65738000       2.43050000       1.73708000       0.04067000
C       -3.39648000       3.40420000       2.34028000      -0.62811000
C       -6.02686000       0.37386000       5.57493000      -0.60736000
C       -8.13849000       1.93010000       1.25044000      -0.61534000
H       -3.29421000      -0.54640000       0.64320000       0.45874000
H       -4.15602000      -1.33634000      -1.17986000       0.23811000
H       -6.55994000      -2.20827000      -0.35234000       0.22450000
H       -4.01102000       0.75376000      -2.45665000       0.22457000
H       -5.26212000       2.29647000      -3.93501000       0.22025000
H       -7.74307000       2.45253000      -3.75565000       0.21936000
H       -8.94420000       1.05019000      -2.08786000       0.22040000
H       -7.69717000      -0.45946000      -0.59643000       0.24198000
H       -5.61378000      -3.95250000      -1.63037000       0.21357000
H       -4.36802000      -6.08972000      -1.60596000       0.21718000
H       -2.89364000      -6.65143000       0.32078000       0.21615000
H       -2.66554000      -5.02755000       2.20380000       0.21708000
H       -3.93621000      -2.91513000       2.17699000       0.24193000
H       -3.74380000       4.35442000       1.92177000       0.23236000
H       -2.79208000       3.65024000       3.21356000       0.21851000
H       -2.75744000       2.93225000       1.58609000       0.25542000
H       -6.48978000       0.98325000       6.36242000       0.22312000
H       -6.62635000      -0.52402000       5.42205000       0.25299000
H       -5.05042000       0.04965000       5.93324000       0.22517000
H       -7.92833000       2.32798000       0.26148000       0.22860000
H       -8.61362000       0.95467000       1.13210000       0.25389000
H       -8.85925000       2.60124000       1.73598000       0.22454000
H       -3.80642000       0.80657000      -0.00023000       0.43661000
H       -2.21454000       0.91945000       2.61464000       0.23537000
C       -7.50801000      -3.74427000       1.79135000      -0.23608000
C       -6.71248000      -4.60230000       2.55224000      -0.17384000
C       -8.27275000      -4.20767000       0.72007000      -0.19671000
C       -6.64210000      -5.94739000       2.20697000      -0.17448000
H       -6.13211000      -4.20937000       3.37874000       0.25398000
C       -8.21007000      -5.55441000       0.37206000      -0.18316000
H       -8.89477000      -3.51333000       0.16650000       0.25274000
C       -7.38013000      -6.39494000       1.11190000       0.07370000
H       -6.00942000      -6.63937000       2.74710000       0.25812000
H       -8.77225000      -5.95411000      -0.46240000       0.25542000
H        1.03665000      -0.00554000      -0.17759000       0.23887000
O        0.21600000       2.25798000      -0.35067000      -0.58039000
C       -0.31150000       3.58679000      -0.49320000      -0.04046000
H       -1.03203000       3.60162000      -1.31922000       0.18714000
H       -0.85138000       3.86586000       0.41869000       0.17523000
O        0.20516000      -2.27458000      -0.31220000      -0.57927000
C       -0.26720000      -3.63856000      -0.24446000      -0.04818000
H        0.26178000      -4.16064000      -1.04732000       0.18383000
H       -1.34113000      -3.66874000      -0.43704000       0.21106000
H        0.20655000      -1.00258000       2.56598000       0.25792000
C        2.04806000       0.90004000       2.43028000      -0.16247000
C        0.21608000       2.44038000       2.78649000      -0.19289000
C        2.94973000       1.95303000       2.44012000      -0.17976000
H        2.40713000      -0.11278000       2.27240000       0.23362000
C        1.10392000       3.50711000       2.78350000      -0.18067000
H       -0.83750000       2.63484000       2.93130000       0.22435000
C        2.46160000       3.25192000       2.59746000       0.06841000
H        4.01317000       1.79358000       2.31219000       0.25549000
H        0.76528000       4.52747000       2.91392000       0.25227000
O       -3.60726000      -1.02871000       3.16366000      -0.42353000
C       -8.43154000       0.88259000       3.89977000      -0.61492000
H       -8.99870000       1.81277000       4.04993000       0.22589000
H       -8.96361000       0.27909000       3.16575000       0.25268000
H       -8.42201000       0.33126000       4.83551000       0.23516000
C       -5.48134000       3.06884000       0.37772000      -0.61518000
H       -5.77735000       4.12570000       0.41891000       0.23270000
H       -4.44264000       3.02808000       0.04384000       0.23218000
H       -6.08256000       2.57778000      -0.38477000       0.24148000
C       -3.54337000       1.75328000       4.90438000      -0.60530000
H       -3.85130000       2.16494000       5.87207000       0.23584000
H       -3.24647000       0.71350000       5.06235000       0.23974000
H       -2.65929000       2.29565000       4.57513000       0.21904000
C        0.06345000      -4.22726000       1.11858000      -0.61932000
H       -0.23759000      -5.28012000       1.15711000       0.21153000
H        1.13938000      -4.16486000       1.31581000       0.20191000
H       -0.47546000      -3.68744000       1.90210000       0.22111000
C        0.86063000       4.51815000      -0.74672000      -0.60244000
H        0.49703000       5.53577000      -0.92755000       0.21222000
H        1.53491000       4.54651000       0.11419000       0.20606000
H        1.42922000       4.19160000      -1.62317000       0.21235000
N        3.39705000       4.37954000       2.54669000       0.49834000
O        4.60161000       4.12788000       2.55814000      -0.38812000
O        2.91790000       5.51472000       2.48445000      -0.39681000
N       -7.26215000      -7.80793000       0.70903000       0.50387000
O       -7.90781000      -8.17805000      -0.27132000      -0.39046000
O       -6.52034000      -8.53109000       1.37237000      -0.38595000
