117
R3TS20minorcNO2.xyz  (col5 = NBO charge)
O       -3.22553000      -1.83710000      -2.78399000      -0.40673000
N       -1.96090000      -1.57203000      -2.72145000       0.48868000
C       -1.53591000      -0.26099000      -2.61767000      -0.15095000
C       -0.19756000       0.02132000      -2.43573000      -0.07006000
C        0.39549000       1.34494000      -2.63999000      -0.09905000
O       -1.88531000       1.49762000      -0.05430000      -0.72154000
C       -0.68741000       1.26018000       0.13099000       0.78336000
C       -0.00109000      -0.00056000       0.01414000      -0.51976000
C       -0.67048000      -1.26072000       0.10226000       0.78372000
O       -1.89719000      -1.45056000       0.04960000      -0.73005000
Ru      -4.95067000      -0.61644000      -2.42835000       0.15645000
S       -5.29800000      -3.77631000      -1.73527000       2.25710000
O       -5.46073000      -3.75104000      -3.20210000      -0.94539000
O       -4.11565000      -4.41614000      -1.13293000      -0.93940000
N       -4.20522000      -0.02826000      -0.54384000      -0.74246000
N       -5.58098000      -2.24429000      -1.16318000      -0.87958000
C       -5.14610000      -0.54356000       0.48352000      -0.01966000
C       -5.16771000      -2.06829000       0.25931000      -0.06190000
C       -4.84109000      -0.09962000       1.90080000      -0.05368000
C       -5.90587000       0.28815000       2.72547000      -0.20150000
C       -5.68303000       0.67628000       4.04632000      -0.21196000
C       -4.38359000       0.69052000       4.55749000      -0.21357000
C       -3.31706000       0.30985000       3.74054000      -0.20540000
C       -3.54059000      -0.08669000       2.42108000      -0.20636000
C       -6.08940000      -2.74062000       1.26089000      -0.03497000
C       -5.54936000      -3.49239000       2.30808000      -0.20371000
C       -6.38207000      -4.10322000       3.24815000      -0.20705000
C       -7.76788000      -3.96845000       3.14804000      -0.21722000
C       -8.31495000      -3.20813000       2.10971000      -0.21174000
C       -7.47950000      -2.59618000       1.17728000      -0.21976000
C       -5.06985000       1.48195000      -3.34089000       0.00239000
C       -6.24160000       1.17274000      -2.53837000       0.02006000
C       -7.03882000       0.02840000      -2.84793000       0.01037000
C       -6.70245000      -0.78355000      -4.00115000       0.05073000
C       -5.48818000      -0.56879000      -4.68517000       0.00354000
C       -4.65556000       0.57629000      -4.35155000       0.01970000
C       -4.28853000       2.74032000      -3.01080000      -0.60856000
C       -8.24955000      -0.36286000      -2.03316000      -0.60126000
C       -5.07607000      -1.56440000      -5.74585000      -0.61113000
H       -4.05340000       0.97264000      -0.42861000       0.41845000
H       -6.14121000      -0.16800000       0.22424000       0.21302000
H       -4.14555000      -2.43503000       0.41351000       0.24722000
H       -6.92048000       0.26398000       2.33472000       0.21296000
H       -6.52177000       0.96725000       4.67325000       0.21665000
H       -4.20421000       0.99630000       5.58495000       0.21608000
H       -2.30223000       0.31925000       4.12972000       0.21757000
H       -2.70896000      -0.38272000       1.79527000       0.24410000
H       -4.47059000      -3.60452000       2.37824000       0.22441000
H       -5.94840000      -4.69123000       4.05270000       0.21845000
H       -8.41900000      -4.45591000       3.86849000       0.21894000
H       -9.39339000      -3.10482000       2.02100000       0.21613000
H       -7.90176000      -2.03068000       0.35327000       0.21632000
H       -4.97028000       3.57756000      -2.83628000       0.23070000
H       -3.67551000       2.62436000      -2.10808000       0.23525000
H       -3.62801000       3.03706000      -3.82494000       0.22571000
H       -9.17711000      -0.10796000      -2.56087000       0.22989000
H       -8.23699000      -1.43813000      -1.84394000       0.23467000
H       -8.27709000       0.12623000      -1.06068000       0.22039000
H       -4.10215000      -1.34351000      -6.17761000       0.22478000
H       -5.02921000      -2.56470000      -5.30474000       0.26091000
H       -5.80468000      -1.58217000      -6.56556000       0.22341000
H       -3.26623000      -0.43698000      -0.38304000       0.47484000
H       -2.32946000       0.46258000      -2.56084000       0.23142000
C       -6.72202000      -4.72244000      -1.12379000      -0.21071000
C       -7.98503000      -4.49386000      -1.67581000      -0.20610000
C       -6.54438000      -5.62842000      -0.07917000      -0.19243000
C       -9.09488000      -5.14237000      -1.14806000      -0.18695000
H       -8.09448000      -3.80834000      -2.50650000       0.23762000
C       -7.65066000      -6.27805000       0.46190000      -0.17151000
H       -5.55106000      -5.78925000       0.32104000       0.25706000
C       -8.90970000      -6.01436000      -0.07350000       0.06238000
H      -10.09110000      -4.98143000      -1.54073000       0.25153000
H       -7.55426000      -6.96162000       1.29538000       0.25612000
H        1.07072000       0.00668000       0.16355000       0.23999000
O        0.18150000      -2.30849000       0.17963000      -0.57401000
C       -0.43256000      -3.61768000       0.10396000      -0.05100000
H       -1.05395000      -3.76916000       0.99413000       0.18055000
H       -1.08805000      -3.65753000      -0.77061000       0.21456000
O        0.19457000       2.26385000       0.40836000      -0.57907000
C       -0.35553000       3.58654000       0.50581000      -0.04063000
H       -1.04058000       3.63001000       1.36134000       0.18368000
H       -0.93610000       3.80772000      -0.39512000       0.18327000
C        1.79582000       1.47555000      -2.61590000      -0.16116000
C       -0.37741000       2.49724000      -2.87158000      -0.19186000
C        2.40385000       2.71062000      -2.81942000      -0.20975000
H        2.40428000       0.59541000      -2.42488000       0.22282000
C        0.23031000       3.73389000      -3.07485000      -0.21448000
H       -1.45766000       2.42890000      -2.87770000       0.21585000
C        1.62291000       3.84722000      -3.05090000      -0.19856000
H        3.48714000       2.78901000      -2.79654000       0.22258000
H       -0.38443000       4.61276000      -3.25085000       0.21868000
H        2.09564000       4.81204000      -3.21238000       0.22067000
H        0.48012000      -0.82482000      -2.46285000       0.25757000
O       -1.16380000      -2.51007000      -2.83460000      -0.41875000
C       -7.60629000      -1.89943000      -4.46539000      -0.62694000
H       -7.80697000      -1.78989000      -5.53732000       0.22861000
H       -7.12266000      -2.86694000      -4.30978000       0.26789000
H       -8.56810000      -1.89687000      -3.95361000       0.21957000
C       -6.60341000       2.12671000      -1.42010000      -0.59920000
H       -5.72655000       2.44051000      -0.84823000       0.22584000
H       -7.06045000       3.03304000      -1.83767000       0.23483000
H       -7.31284000       1.70183000      -0.71314000       0.22569000
C       -3.38125000       0.77954000      -5.14141000      -0.60410000
H       -2.77123000      -0.12599000      -5.12857000       0.23850000
H       -3.61959000       1.01086000      -6.18687000       0.23331000
H       -2.75642000       1.58067000      -4.75218000       0.22344000
C        0.69544000      -4.62798000       0.01731000      -0.60199000
H        0.28232000      -5.64139000      -0.03117000       0.21301000
H        1.29322000      -4.45603000      -0.88380000       0.20707000
H        1.35511000      -4.56066000       0.88932000       0.20285000
C        0.81450000       4.54114000       0.66203000      -0.60462000
H        0.45358000       5.57235000       0.74912000       0.20760000
H        1.39615000       4.29947000       1.55763000       0.20862000
H        1.47398000       4.47225000      -0.20863000       0.21137000
N      -10.08680000      -6.65992000       0.52630000       0.50289000
O       -9.90425000      -7.40756000       1.48721000      -0.38973000
O      -11.18977000      -6.40824000       0.03802000      -0.39642000
