119
R3TS20minorsCN.xyz  (col5 = NBO charge)
O       -3.19955000      -1.88956000      -2.78737000      -0.39618000
N       -1.94198000      -1.61288000      -2.72328000       0.48950000
C       -1.53012000      -0.29497000      -2.61786000      -0.14856000
C       -0.19761000      -0.00276000      -2.41278000      -0.09485000
C        0.37800000       1.33193000      -2.59772000      -0.05574000
O       -1.88510000       1.49290000      -0.05787000      -0.71263000
C       -0.68953000       1.25967000       0.13832000       0.78184000
C        0.00145000      -0.00027000       0.00760000      -0.50765000
C       -0.67126000      -1.26191000       0.10488000       0.78500000
O       -1.89704000      -1.44443000       0.04975000      -0.72104000
Ru      -4.94232000      -0.67526000      -2.46221000       0.15477000
S       -5.27745000      -3.82337000      -1.71226000       2.24922000
O       -5.42026000      -3.81351000      -3.18299000      -0.95161000
O       -4.07441000      -4.41410000      -1.09708000      -0.94618000
N       -4.21835000      -0.03959000      -0.58258000      -0.74090000
N       -5.58286000      -2.27228000      -1.17345000      -0.87511000
C       -5.16709000      -0.54058000       0.44551000      -0.01984000
C       -5.18406000      -2.06935000       0.24713000      -0.06174000
C       -4.87473000      -0.06876000       1.85619000      -0.05214000
C       -5.94400000       0.35087000       2.65886000      -0.20077000
C       -5.73214000       0.76568000       3.97346000      -0.21200000
C       -4.43911000       0.77443000       4.50062000      -0.21419000
C       -3.36788000       0.36091000       3.70598000      -0.20612000
C       -3.58087000      -0.06199000       2.39305000      -0.20675000
C       -6.11328000      -2.71572000       1.26039000      -0.02984000
C       -5.57823000      -3.39829000       2.35643000      -0.20398000
C       -6.41518000      -3.95981000       3.32261000      -0.20742000
C       -7.80080000      -3.84623000       3.19879000      -0.22061000
C       -8.34299000      -3.16216000       2.10683000      -0.20887000
C       -7.50315000      -2.59750000       1.14900000      -0.21669000
C       -5.08155000       1.40522000      -3.42084000       0.00087000
C       -6.25534000       1.09223000      -2.62233000       0.01798000
C       -7.03299000      -0.06936000      -2.91855000       0.01301000
C       -6.67556000      -0.89587000      -4.05422000       0.05260000
C       -5.45320000      -0.68016000      -4.72333000       0.00313000
C       -4.64293000       0.48662000      -4.40814000       0.01595000
C       -4.32547000       2.68279000      -3.10647000      -0.60701000
C       -8.24391000      -0.46573000      -2.10722000      -0.60233000
C       -5.01251000      -1.69297000      -5.75554000      -0.61105000
H       -4.07807000       0.96508000      -0.48631000       0.41579000
H       -6.16051000      -0.17236000       0.17026000       0.21344000
H       -4.16310000      -2.43218000       0.42059000       0.24442000
H       -6.95399000       0.32980000       2.25613000       0.21324000
H       -6.57454000       1.08144000       4.58330000       0.21625000
H       -4.26821000       1.10095000       5.52314000       0.21580000
H       -2.35802000       0.36494000       4.10807000       0.21697000
H       -2.74571000      -0.38393000       1.78486000       0.24269000
H       -4.49917000      -3.49058000       2.44790000       0.22263000
H       -5.98440000      -4.49059000       4.16766000       0.21613000
H       -8.45491000      -4.29005000       3.94492000       0.21380000
H       -9.42129000      -3.07919000       1.99640000       0.21305000
H       -7.92026000      -2.09248000       0.28474000       0.21815000
H       -5.02225000       3.51484000      -2.96993000       0.23146000
H       -3.73452000       2.59959000      -2.18559000       0.23220000
H       -3.64895000       2.96848000      -3.91142000       0.22440000
H       -9.17127000      -0.21385000      -2.63705000       0.22825000
H       -8.22604000      -1.54085000      -1.91837000       0.23909000
H       -8.27417000       0.02221000      -1.13409000       0.21973000
H       -4.00774000      -1.50532000      -6.12864000       0.22428000
H       -5.02145000      -2.69158000      -5.30969000       0.26133000
H       -5.69208000      -1.68986000      -6.61716000       0.22293000
H       -3.27968000      -0.43770000      -0.40315000       0.47277000
H       -2.33276000       0.41962000      -2.57037000       0.23149000
C       -6.67642000      -4.77803000      -1.08969000      -0.26494000
C       -7.94427000      -4.58664000      -1.63778000      -0.19976000
C       -6.48894000      -5.66041000      -0.02745000      -0.18547000
C       -9.03542000      -5.25979000      -1.09287000      -0.21814000
H       -8.07456000      -3.91833000      -2.48076000       0.22594000
C       -7.58845000      -6.32600000       0.50935000      -0.20577000
H       -5.49410000      -5.79738000       0.37958000       0.24563000
C       -8.87747000      -6.12568000      -0.00164000      -0.01495000
H      -10.02583000      -5.10817000      -1.51646000       0.21464000
H       -7.44547000      -6.99885000       1.35130000       0.21877000
C      -10.06749000      -6.79905000       0.63863000      -0.60675000
H      -10.35733000      -6.27535000       1.55969000       0.22080000
H      -10.93752000      -6.80463000      -0.02628000       0.21314000
H       -9.84322000      -7.83571000       0.91416000       0.21885000
H        1.07182000       0.00682000       0.16881000       0.24052000
O        0.17778000      -2.30914000       0.18837000      -0.57235000
C       -0.44081000      -3.61898000       0.12253000      -0.05159000
H       -1.05482000      -3.76353000       1.01867000       0.18203000
H       -1.10413000      -3.66035000      -0.74582000       0.21644000
O        0.18696000       2.26138000       0.43672000      -0.57959000
C       -0.37319000       3.57909000       0.56798000      -0.04132000
H       -1.07492000       3.58772000       1.41053000       0.18622000
H       -0.93993000       3.82522000      -0.33546000       0.18209000
C        1.77475000       1.49202000      -2.53062000      -0.16491000
C       -0.41272000       2.47125000      -2.83702000      -0.19391000
C        2.36501000       2.73750000      -2.68494000      -0.14825000
H        2.39718000       0.62324000      -2.33626000       0.23170000
C        0.16552000       3.72373000      -2.99317000      -0.15401000
H       -1.48966000       2.38113000      -2.88437000       0.22488000
C        1.56106000       3.86907000      -2.91498000      -0.19206000
H        3.44272000       2.84777000      -2.62417000       0.23756000
H       -0.45495000       4.59653000      -3.17024000       0.23395000
H        0.49156000      -0.83929000      -2.44476000       0.26062000
O       -1.13023000      -2.53925000      -2.82972000      -0.41776000
C       -7.56102000      -2.03139000      -4.50515000      -0.62843000
H       -7.69931000      -1.98600000      -5.59099000       0.22659000
H       -7.09367000      -2.98978000      -4.26371000       0.27187000
H       -8.54955000      -1.99239000      -4.04802000       0.21957000
C       -6.64577000       2.06367000      -1.52902000      -0.59877000
H       -5.78312000       2.39430000      -0.94477000       0.22472000
H       -7.10030000       2.95913000      -1.97203000       0.23410000
H       -7.36727000       1.64627000      -0.82986000       0.22603000
C       -3.36462000       0.69277000      -5.19088000      -0.60221000
H       -2.73284000      -0.19644000      -5.13976000       0.23728000
H       -3.59499000       0.88086000      -6.24661000       0.23348000
H       -2.76439000       1.52278000      -4.82346000       0.22052000
C        0.68392000      -4.63189000       0.03005000      -0.60224000
H        0.26695000      -5.64398000      -0.01063000       0.21429000
H        1.27339000      -4.46561000      -0.87756000       0.20713000
H        1.35179000      -4.56320000       0.89569000       0.20284000
C        0.78502000       4.53698000       0.78070000      -0.60324000
H        0.41294000       5.56098000       0.89605000       0.21153000
H        1.35038000       4.26892000       1.67906000       0.21001000
H        1.46610000       4.51104000      -0.07539000       0.20848000
C        2.15616000       5.16349000      -3.05848000       0.32210000
N        2.63429000       6.21858000      -3.16916000      -0.36032000
