113
R3TS2majorsNO2cNO2.xyz  (col5 = NBO charge)
O       -1.62634000      -2.27151000       3.13263000      -0.41147000
N       -2.21370000      -1.19151000       2.99346000       0.48510000
C       -1.52342000      -0.01187000       2.72922000      -0.14143000
C       -0.17195000      -0.02993000       2.47007000      -0.08353000
C        0.71493000       1.13184000       2.55614000      -0.05003000
O       -1.89728000      -1.50052000       0.07720000      -0.71517000
C       -0.68761000      -1.27664000      -0.03559000       0.77983000
C       -0.02732000      -0.00674000      -0.03582000      -0.51604000
C       -0.69817000       1.25381000      -0.15851000       0.77870000
O       -1.90037000       1.50937000      -0.00768000      -0.72787000
Ru      -5.15108000       0.25469000       2.36647000       0.18984000
S       -7.38944000      -2.07793000       2.29306000       2.25663000
O       -7.33015000      -1.97394000       3.76125000      -0.94183000
O       -8.56219000      -1.46894000       1.60774000      -0.97837000
N       -4.17465000      -0.06404000       0.52471000      -0.74593000
N       -5.96091000      -1.55810000       1.68167000      -0.87851000
C       -4.94311000      -0.88267000      -0.46115000      -0.02348000
C       -5.65558000      -2.02261000       0.30315000      -0.04699000
C       -5.82741000       0.02218000      -1.30006000      -0.04349000
C       -5.19514000       0.83124000      -2.25858000      -0.21069000
C       -5.92874000       1.71999000      -3.04203000      -0.20948000
C       -7.31602000       1.80440000      -2.88615000      -0.21806000
C       -7.95292000       0.99561000      -1.94446000      -0.20993000
C       -7.21440000       0.11177000      -1.15048000      -0.22478000
C       -4.84948000      -3.32217000       0.27924000      -0.03811000
C       -5.03181000      -4.20945000      -0.78866000      -0.21649000
C       -4.35456000      -5.42959000      -0.82843000      -0.21539000
C       -3.48361000      -5.77746000       0.20760000      -0.22479000
C       -3.29209000      -4.89068000       1.26919000      -0.20954000
C       -3.96790000      -3.67084000       1.30452000      -0.20654000
C       -4.53721000       2.44635000       2.85671000      -0.01190000
C       -4.58519000       1.69670000       4.06092000       0.04312000
C       -5.79717000       0.99528000       4.44656000      -0.02981000
C       -6.95842000       1.13454000       3.65277000       0.08023000
C       -6.86590000       1.72413000       2.33968000       0.00118000
C       -5.63816000       2.34412000       1.93035000       0.04016000
C       -3.36688000       3.32760000       2.47341000      -0.62662000
C       -5.84154000       0.18418000       5.72235000      -0.60713000
C       -8.13165000       1.83756000       1.52448000      -0.61611000
H       -3.28505000      -0.56303000       0.67343000       0.45839000
H       -4.20086000      -1.33564000      -1.12806000       0.23879000
H       -6.58294000      -2.22977000      -0.24427000       0.22397000
H       -4.11510000       0.76770000      -2.37953000       0.22489000
H       -5.42221000       2.33904000      -3.77756000       0.22030000
H       -7.89410000       2.49074000      -3.49894000       0.21943000
H       -9.03031000       1.05499000      -1.81413000       0.22045000
H       -7.72710000      -0.48322000      -0.40232000       0.24204000
H       -5.73060000      -3.95737000      -1.58441000       0.21353000
H       -4.52304000      -6.11494000      -1.65504000       0.21725000
H       -2.96982000      -6.73498000       0.19012000       0.21655000
H       -2.61951000      -5.14597000       2.08384000       0.21611000
H       -3.84187000      -3.00514000       2.14658000       0.24254000
H       -3.73935000       4.28127000       2.08571000       0.23282000
H       -2.73775000       3.56468000       3.33147000       0.21842000
H       -2.74610000       2.87923000       1.68973000       0.25405000
H       -6.25691000       0.77335000       6.55078000       0.22301000
H       -6.45510000      -0.70494000       5.57545000       0.25263000
H       -4.85012000      -0.15768000       6.01815000       0.22555000
H       -7.96009000       2.25963000       0.53803000       0.22870000
H       -8.60724000       0.86308000       1.40116000       0.25462000
H       -8.83590000       2.49413000       2.05240000       0.22463000
H       -3.84863000       0.79470000       0.08198000       0.43395000
H       -2.15316000       0.85792000       2.68370000       0.23350000
C       -7.45650000      -3.83308000       1.88479000      -0.23632000
C       -6.63176000      -4.71430000       2.58567000      -0.17349000
C       -8.27242000      -4.26442000       0.83819000      -0.19638000
C       -6.58513000      -6.05006000       2.20246000      -0.17480000
H       -6.01182000      -4.34609000       3.39457000       0.25406000
C       -8.23421000      -5.60200000       0.45324000      -0.18345000
H       -8.91508000      -3.55289000       0.33219000       0.25295000
C       -7.37598000      -6.46537000       1.13180000       0.07374000
H       -5.93193000      -6.75877000       2.69422000       0.25823000
H       -8.83676000      -5.97710000      -0.36429000       0.25547000
H        1.04322000      -0.00586000      -0.18994000       0.24110000
O        0.20184000       2.25475000      -0.39819000      -0.56783000
C       -0.34132000       3.57146000      -0.50012000      -0.22060000
H       -1.10917000       3.62206000      -1.27849000       0.18800000
H       -0.78009000       3.89166000       0.45029000       0.17527000
H        0.50099000       4.21729000      -0.75307000       0.19402000
O        0.20787000      -2.29943000      -0.08847000      -0.56959000
C       -0.35476000      -3.60312000       0.12493000      -0.22850000
H       -1.14095000      -3.82166000      -0.60195000       0.19477000
H        0.47739000      -4.30102000       0.01718000       0.18665000
H       -0.78769000      -3.66309000       1.12728000       0.19499000
H        0.30821000      -1.00283000       2.48106000       0.25903000
C        2.10062000       0.94758000       2.37596000      -0.16299000
C        0.24215000       2.43007000       2.82080000      -0.19400000
C        2.98069000       2.01809000       2.42855000      -0.17937000
H        2.47955000      -0.04898000       2.16857000       0.23399000
C        1.10915000       3.51327000       2.87372000      -0.17998000
H       -0.81383000       2.59584000       2.97968000       0.22398000
C        2.47081000       3.29546000       2.67066000       0.06901000
H        4.04556000       1.88668000       2.28259000       0.25608000
H        0.75257000       4.51704000       3.06907000       0.25217000
O       -3.48684000      -1.13852000       3.18400000      -0.42875000
C       -8.31762000       0.72202000       4.15708000      -0.61479000
H       -8.88389000       1.64465000       4.35076000       0.22592000
H       -8.87370000       0.13252000       3.42957000       0.25278000
H       -8.26902000       0.14941000       5.07876000       0.23495000
C       -5.52051000       3.01539000       0.58051000      -0.61567000
H       -5.83775000       4.06426000       0.65398000       0.23308000
H       -4.49309000       3.00485000       0.21149000       0.23135000
H       -6.13617000       2.52661000      -0.17198000       0.24223000
C       -3.40621000       1.61553000       5.00474000      -0.60595000
H       -3.69238000       1.98216000       5.99679000       0.23592000
H       -3.08038000       0.57785000       5.11251000       0.24048000
H       -2.54603000       2.19203000       4.66998000       0.21905000
N        3.39080000       4.43882000       2.71582000       0.49990000
O        4.59058000       4.21467000       2.55519000      -0.38939000
O        2.90624000       5.55523000       2.90941000      -0.39577000
N       -7.28430000      -7.86761000       0.68691000       0.50370000
O       -7.97894000      -8.20982000      -0.26983000      -0.39053000
O       -6.51377000      -8.61021000       1.29364000      -0.38612000
