112
R3TS2minor.xyz  (col5 = NBO charge)
O       -3.14538000      -1.85869000      -2.84240000      -0.40759000
N       -1.88590000      -1.57888000      -2.73682000       0.48451000
C       -1.47706000      -0.26716000      -2.61947000      -0.15840000
C       -0.14536000       0.02690000      -2.38026000      -0.07885000
C        0.44010000       1.35656000      -2.58837000      -0.09527000
O       -1.88294000       1.50092000      -0.05924000      -0.71184000
C       -0.69092000       1.25858000       0.14307000       0.78624000
C        0.00000000      -0.00000000       0.00000000      -0.51083000
C       -0.67222000      -1.26108000       0.11170000       0.78702000
O       -1.89540000      -1.45246000       0.04715000      -0.71936000
Ru      -4.88168000      -0.63623000      -2.56282000       0.15642000
S       -5.27971000      -3.78976000      -1.85599000       2.24978000
O       -5.37607000      -3.76551000      -3.33023000      -0.95161000
O       -4.10862000      -4.40745000      -1.20740000      -0.94558000
N       -4.19734000      -0.03407000      -0.65777000      -0.74093000
N       -5.57817000      -2.23978000      -1.31093000      -0.87467000
C       -5.18229000      -0.53029000       0.33715000      -0.01969000
C       -5.21597000      -2.05693000       0.12190000      -0.06099000
C       -4.92669000      -0.07852000       1.76185000      -0.05159000
C       -6.01796000       0.32400000       2.54374000      -0.20115000
C       -5.84166000       0.71820000       3.86979000      -0.21249000
C       -4.56252000       0.72368000       4.43004000      -0.21505000
C       -3.46967000       0.32776000       3.65630000      -0.20643000
C       -3.64706000      -0.07470000       2.33153000      -0.20699000
C       -6.18251000      -2.70077000       1.10117000      -0.02940000
C       -5.68929000      -3.40349000       2.20402000      -0.20386000
C       -6.56174000      -3.96416000       3.13882000      -0.20770000
C       -7.94145000      -3.82918000       2.97663000      -0.22109000
C       -8.44203000      -3.12467000       1.87781000      -0.20933000
C       -7.56687000      -2.56137000       0.95131000      -0.21682000
C       -4.97830000       1.45889000      -3.49959000       0.00101000
C       -6.17813000       1.14436000      -2.74098000       0.01531000
C       -6.95498000      -0.00612000      -3.07695000       0.01175000
C       -6.56560000      -0.82319000      -4.20861000       0.05116000
C       -5.32019000      -0.60957000      -4.83479000       0.00271000
C       -4.51531000       0.55095000      -4.48539000       0.01570000
C       -4.22598000       2.72846000      -3.14694000      -0.60739000
C       -8.19376000      -0.40370000      -2.30934000      -0.60230000
C       -4.85159000      -1.61631000      -5.86053000      -0.61046000
H       -4.03946000       0.96644000      -0.54636000       0.41667000
H       -6.16186000      -0.14498000       0.03691000       0.21305000
H       -4.20525000      -2.43594000       0.32012000       0.24387000
H       -7.01729000       0.30464000       2.11528000       0.21346000
H       -6.70091000       1.02033000       4.46289000       0.21590000
H       -4.41924000       1.03398000       5.46189000       0.21541000
H       -2.47028000       0.32941000       4.08388000       0.21680000
H       -2.79531000      -0.38326000       1.73968000       0.24366000
H       -4.61474000      -3.51213000       2.32546000       0.22279000
H       -6.16308000      -4.51098000       3.98943000       0.21596000
H       -8.62310000      -4.27238000       3.69814000       0.21352000
H       -9.51541000      -3.02492000       1.73720000       0.21282000
H       -7.95142000      -2.04073000       0.08127000       0.21861000
H       -4.92303000       3.56188000      -3.01981000       0.22992000
H       -3.66157000       2.63035000      -2.21118000       0.23338000
H       -3.52443000       3.02056000      -3.92757000       0.22508000
H       -9.10256000      -0.14170000      -2.86585000       0.22743000
H       -8.18736000      -1.48071000      -2.13056000       0.23934000
H       -8.25270000       0.07473000      -1.33276000       0.21925000
H       -3.82647000      -1.44341000      -6.18178000       0.22475000
H       -4.89944000      -2.62038000      -5.43003000       0.26083000
H       -5.48953000      -1.58781000      -6.75326000       0.22178000
H       -3.27074000      -0.45128000      -0.45955000       0.47218000
H       -2.27757000       0.45054000      -2.59253000       0.22925000
C       -6.71418000      -4.72797000      -1.28840000      -0.26425000
C       -7.96077000      -4.51152000      -1.87460000      -0.20037000
C       -6.57505000      -5.62446000      -0.23049000      -0.18585000
C       -9.07935000      -5.17254000      -1.37192000      -0.21849000
H       -8.05347000      -3.83366000      -2.71487000       0.22596000
C       -7.70140000      -6.27810000       0.26382000      -0.20606000
H       -5.59599000      -5.78168000       0.20638000       0.24572000
C       -8.97011000      -6.05195000      -0.28560000      -0.01598000
H      -10.05318000      -5.00091000      -1.82542000       0.21434000
H       -7.59584000      -6.96188000       1.10254000       0.21854000
C      -10.19047000      -6.71305000       0.30890000      -0.60659000
H      -10.50237000      -6.19432000       1.22557000       0.22050000
H      -11.03844000      -6.69850000      -0.38388000       0.21293000
H       -9.99115000      -7.75584000       0.58060000       0.21866000
H        1.06841000       0.00754000       0.17367000       0.24220000
O        0.18165000      -2.30444000       0.22521000      -0.56150000
C       -0.43888000      -3.60222000       0.15374000      -0.22747000
H       -1.12875000      -3.74686000       0.99053000       0.18339000
H       -0.99071000      -3.71119000      -0.78390000       0.21371000
H        0.38477000      -4.31570000       0.20967000       0.18469000
O        0.18399000       2.25476000       0.46952000      -0.56590000
C       -0.38718000       3.55964000       0.58223000      -0.22080000
H       -1.15859000       3.58259000       1.35893000       0.18569000
H        0.44082000       4.21939000       0.84766000       0.18922000
H       -0.82858000       3.87644000      -0.36675000       0.18346000
C        1.83708000       1.50481000      -2.52800000      -0.16501000
C       -0.33980000       2.49670000      -2.85110000      -0.19625000
C        2.43507000       2.74639000      -2.72264000      -0.20826000
H        2.45101000       0.63361000      -2.31427000       0.22229000
C        0.25808000       3.73974000      -3.04754000      -0.21456000
H       -1.41825000       2.41410000      -2.88908000       0.21574000
C        1.64732000       3.87152000      -2.98295000      -0.19931000
H        3.51636000       2.83833000      -2.67002000       0.22180000
H       -0.36279000       4.60870000      -3.25034000       0.21789000
H        2.11255000       4.84137000      -3.13599000       0.21952000
H        0.54040000      -0.81267000      -2.40947000       0.25828000
O       -1.07547000      -2.51104000      -2.81662000      -0.43043000
C       -7.44607000      -1.94425000      -4.70403000      -0.62819000
H       -7.54461000      -1.88471000      -5.79357000       0.22596000
H       -6.99889000      -2.91082000      -4.45764000       0.27171000
H       -8.45006000      -1.89895000      -4.28225000       0.21905000
C       -6.59388000       2.10449000      -1.64692000      -0.59850000
H       -5.74678000       2.41571000      -1.03009000       0.22486000
H       -7.02386000       3.01190000      -2.09024000       0.23304000
H       -7.34232000       1.68497000      -0.97793000       0.22541000
C       -3.21624000       0.76141000      -5.23193000      -0.60303000
H       -2.58360000      -0.12605000      -5.16413000       0.23840000
H       -3.41894000       0.94998000      -6.29331000       0.23177000
H       -2.62722000       1.59149000      -4.84716000       0.22241000
