119
R3TS2majorsNMe2cNO2.xyz  (col5 = NBO charge)
O       -1.28865000      -2.16769000       3.19358000      -0.45859000
N       -1.87684000      -1.07360000       3.11916000       0.46018000
C       -1.23904000       0.08074000       2.75453000      -0.16411000
C        0.09245000       0.06130000       2.32629000      -0.05710000
C        1.00116000       1.19745000       2.41801000      -0.18734000
O       -1.89379000      -1.50984000       0.07538000      -0.70455000
C       -0.68822000      -1.28206000      -0.03996000       0.79019000
C       -0.02850000      -0.00585000      -0.02127000      -0.50717000
C       -0.70314000       1.25321000      -0.17621000       0.78982000
O       -1.89709000       1.52381000       0.00167000      -0.72265000
Ru      -4.80139000       0.31873000       2.85118000       0.19073000
S       -7.06989000      -1.99091000       3.08566000       2.25841000
O       -6.84221000      -1.85078000       4.53480000      -0.94376000
O       -8.31872000      -1.39836000       2.52957000      -0.98283000
N       -4.05447000      -0.07044000       0.91898000      -0.74140000
N       -5.72877000      -1.49984000       2.29869000      -0.88068000
C       -4.95473000      -0.87822000       0.04314000      -0.02486000
C       -5.59073000      -1.99302000       0.90493000      -0.04625000
C       -5.91488000       0.03367000      -0.69833000      -0.04099000
C       -5.38406000       0.82356000      -1.73146000      -0.20996000
C       -6.19158000       1.70893000      -2.44259000      -0.21069000
C       -7.55285000       1.80925000      -2.13751000      -0.22007000
C       -8.08959000       1.02022000      -1.11967000      -0.21110000
C       -7.27602000       0.13987000      -0.39847000      -0.22431000
C       -4.80367000      -3.30109000       0.81604000      -0.03794000
C       -5.13043000      -4.22262000      -0.18619000      -0.21736000
C       -4.47142000      -5.45044000      -0.27091000      -0.21695000
C       -3.47288000      -5.77047000       0.65286000      -0.22604000
C       -3.13732000      -4.84873000       1.64689000      -0.21018000
C       -3.79534000      -3.62132000       1.72773000      -0.20775000
C       -4.14748000       2.52118000       3.20495000      -0.01592000
C       -4.05573000       1.80648000       4.42795000       0.04483000
C       -5.21422000       1.11813000       4.96769000      -0.03572000
C       -6.45971000       1.24531000       4.30998000       0.08238000
C       -6.52453000       1.80971000       2.98529000      -0.01030000
C       -5.35098000       2.40243000       2.41669000       0.03703000
C       -3.03290000       3.39251000       2.66533000      -0.62448000
C       -5.10715000       0.33381000       6.25625000      -0.60603000
C       -7.87956000       1.91444000       2.32683000      -0.61482000
H       -3.18043000      -0.60870000       0.98420000       0.45476000
H       -4.30798000      -1.35455000      -0.70214000       0.23996000
H       -6.57667000      -2.19879000       0.47049000       0.22266000
H       -4.32381000       0.74865000      -1.96647000       0.22555000
H       -5.76311000       2.31378000      -3.23733000       0.21922000
H       -8.18878000       2.49311000      -2.69336000       0.21840000
H       -9.14549000       1.09307000      -0.87228000       0.21982000
H       -7.70743000      -0.43915000       0.41116000       0.24229000
H       -5.92732000      -3.99117000      -0.89085000       0.21251000
H       -4.75200000      -6.16294000      -1.04246000       0.21596000
H       -2.97162000      -6.73360000       0.60260000       0.21530000
H       -2.36465000      -5.08187000       2.37481000       0.21626000
H       -3.55400000      -2.92732000       2.52092000       0.24842000
H       -3.45035000       4.33924000       2.30685000       0.22983000
H       -2.30302000       3.64279000       3.43491000       0.21810000
H       -2.51122000       2.92836000       1.82111000       0.25179000
H       -5.39548000       0.94672000       7.12095000       0.21989000
H       -5.75113000      -0.54456000       6.21084000       0.25125000
H       -4.09186000      -0.02602000       6.42182000       0.22687000
H       -7.82738000       2.32403000       1.32166000       0.22734000
H       -8.36618000       0.93869000       2.27334000       0.25373000
H       -8.51758000       2.57783000       2.92577000       0.22229000
H       -3.73151000       0.75938000       0.41974000       0.43736000
H       -1.86050000       0.95666000       2.76989000       0.22617000
C       -7.19212000      -3.75775000       2.73899000      -0.23389000
C       -6.28432000      -4.62294000       3.35208000      -0.17423000
C       -8.13700000      -4.21598000       1.82026000      -0.19787000
C       -6.29025000      -5.96966000       3.00694000      -0.17497000
H       -5.56233000      -4.23359000       4.06019000       0.25480000
C       -8.15209000      -5.56461000       1.47425000      -0.18410000
H       -8.83768000      -3.51538000       1.38031000       0.25238000
C       -7.21519000      -6.41289000       2.06187000       0.07166000
H       -5.57888000      -6.66656000       3.42999000       0.25771000
H       -8.85626000      -5.96013000       0.75326000       0.25438000
H        1.03251000      -0.00621000      -0.23215000       0.24407000
O        0.19646000       2.23868000      -0.47425000      -0.56312000
C       -0.32659000       3.56458000      -0.53494000      -0.22066000
H       -1.17246000       3.62641000      -1.22646000       0.18767000
H       -0.65017000       3.90249000       0.45510000       0.17764000
H        0.49811000       4.18929000      -0.88295000       0.19058000
O        0.21588000      -2.29639000      -0.10893000      -0.56964000
C       -0.32666000      -3.60065000       0.14998000      -0.22982000
H       -1.14162000      -3.83777000      -0.53842000       0.19433000
H        0.50569000      -4.29458000       0.01881000       0.18494000
H       -0.71305000      -3.64119000       1.17156000       0.19930000
H        0.55885000      -0.91863000       2.31756000       0.25474000
C        2.37073000       1.01431000       2.14827000      -0.13495000
C        0.58901000       2.49982000       2.74445000      -0.06667000
C        3.27476000       2.06152000       2.18864000      -0.27633000
H        2.72666000       0.02180000       1.88227000       0.22076000
C        1.47696000       3.56364000       2.78991000      -0.31733000
H       -0.45260000       2.69050000       2.96458000       0.20077000
C        2.85310000       3.37729000       2.50937000       0.22904000
H        4.31438000       1.85751000       1.96397000       0.22555000
H        1.09612000       4.54458000       3.04751000       0.22049000
O       -3.13197000      -1.03198000       3.49006000      -0.46631000
C       -7.75193000       0.85417000       4.98120000      -0.61417000
H       -8.28591000       1.78548000       5.22056000       0.22389000
H       -8.39384000       0.25375000       4.33818000       0.25213000
H       -7.59718000       0.30086000       5.90293000       0.23420000
C       -5.38604000       3.04392000       1.04773000      -0.61403000
H       -5.65418000       4.10548000       1.13647000       0.22974000
H       -4.41539000       2.98704000       0.55106000       0.23174000
H       -6.10924000       2.56507000       0.39139000       0.24078000
C       -2.77532000       1.74230000       5.23043000      -0.60672000
H       -2.94814000       2.11532000       6.24607000       0.23196000
H       -2.43337000       0.70672000       5.30522000       0.24436000
H       -1.96248000       2.31889000       4.79325000       0.22013000
N        3.74632000       4.42892000       2.55369000      -0.48862000
C        3.25526000       5.78362000       2.74169000      -0.36443000
C        5.12572000       4.22409000       2.14158000      -0.36518000
H        4.09777000       6.47706000       2.73653000       0.21073000
H        2.55592000       6.08676000       1.94744000       0.19156000
H        2.74175000       5.89096000       3.70595000       0.19849000
H        5.61921000       3.47117000       2.76895000       0.20062000
H        5.20403000       3.89979000       1.09293000       0.19412000
H        5.67706000       5.15934000       2.25181000       0.20977000
N       -7.18647000      -7.82783000       1.65353000       0.50365000
O       -7.99976000      -8.19537000       0.80522000      -0.39263000
O       -6.34743000      -8.55849000       2.17919000      -0.38741000
