111
R3TS2minorcNO2.xyz  (col5 = NBO charge)
O       -3.19107000      -1.84654000      -2.81049000      -0.41067000
N       -1.92728000      -1.57463000      -2.72556000       0.48594000
C       -1.50978000      -0.26459000      -2.61449000      -0.15467000
C       -0.17359000       0.02337000      -2.40381000      -0.07396000
C        0.41542000       1.34988000      -2.61181000      -0.09797000
O       -1.88345000       1.50146000      -0.05710000      -0.71519000
C       -0.68958000       1.25934000       0.13854000       0.78534000
C       -0.00109000      -0.00038000       0.00445000      -0.51462000
C       -0.67156000      -1.26068000       0.10947000       0.78525000
O       -1.89581000      -1.45378000       0.04733000      -0.72432000
Ru      -4.92035000      -0.62558000      -2.49040000       0.15701000
S       -5.28520000      -3.77984000      -1.77958000       2.25713000
O       -5.42116000      -3.76585000      -3.24915000      -0.94544000
O       -4.11570000      -4.41707000      -1.15031000      -0.93957000
N       -4.20161000      -0.02628000      -0.59814000      -0.74164000
N       -5.57522000      -2.24259000      -1.22425000      -0.87811000
C       -5.16177000      -0.53059000       0.41732000      -0.01975000
C       -5.18678000      -2.05672000       0.20377000      -0.06147000
C       -4.87810000      -0.07905000       1.83657000      -0.05352000
C       -5.95214000       0.33341000       2.63671000      -0.20115000
C       -5.74887000       0.72842000       3.95876000      -0.21171000
C       -4.45989000       0.72424000       4.49581000      -0.21350000
C       -3.38403000       0.31835000       3.70350000      -0.20564000
C       -3.58826000      -0.08471000       2.38295000      -0.20664000
C       -6.12918000      -2.71633000       1.19458000      -0.03513000
C       -5.61126000      -3.46012000       2.25850000      -0.20369000
C       -6.46321000      -4.05957000       3.18856000      -0.20748000
C       -7.84644000      -3.92107000       3.06172000      -0.21732000
C       -8.37157000      -3.16836000       2.00668000      -0.21175000
C       -7.51696000      -2.56776000       1.08423000      -0.21948000
C       -5.02658000       1.46531000      -3.42330000       0.00217000
C       -6.21234000       1.16232000      -2.63922000       0.01910000
C       -7.00277000       0.01479000      -2.95275000       0.01056000
C       -6.64407000      -0.80753000      -4.09175000       0.05048000
C       -5.41775000      -0.59778000      -4.75567000       0.00415000
C       -4.59245000       0.55114000      -4.41776000       0.01923000
C       -4.25572000       2.72984000      -3.09291000      -0.60836000
C       -8.22726000      -0.37108000      -2.15624000      -0.60183000
C       -4.98565000      -1.60324000      -5.79895000      -0.61116000
H       -4.04747000       0.97478000      -0.48699000       0.41798000
H       -6.15044000      -0.15193000       0.13901000       0.21352000
H       -4.16935000      -2.42718000       0.37956000       0.24616000
H       -6.95912000       0.32355000       2.22604000       0.21308000
H       -6.59471000       1.03874000       4.56655000       0.21673000
H       -4.29575000       1.03491000       5.52433000       0.21617000
H       -2.37729000       0.31274000       4.11325000       0.21745000
H       -2.74986000      -0.40088000       1.77621000       0.24329000
H       -4.53438000      -3.57512000       2.34975000       0.22400000
H       -6.04646000      -4.64167000       4.00625000       0.21829000
H       -8.51242000      -4.39983000       3.77437000       0.21879000
H       -9.44781000      -3.06218000       1.89716000       0.21601000
H       -7.92204000      -2.00849000       0.24752000       0.21785000
H       -4.94352000       3.56758000      -2.94630000       0.23084000
H       -3.66437000       2.62853000      -2.17428000       0.23449000
H       -3.57652000       3.01676000      -3.89502000       0.22579000
H       -9.14576000      -0.12559000      -2.70384000       0.22931000
H       -8.21430000      -1.44408000      -1.95436000       0.23655000
H       -8.27450000       0.12899000      -1.19009000       0.22011000
H       -4.00804000      -1.38084000      -6.22148000       0.22466000
H       -4.93775000      -2.59767000      -5.34459000       0.26135000
H       -5.70399000      -1.63626000      -6.62712000       0.22315000
H       -3.26791000      -0.43832000      -0.41985000       0.47347000
H       -2.30620000       0.45678000      -2.57190000       0.23023000
C       -6.72271000      -4.71716000      -1.18641000      -0.21051000
C       -7.97433000      -4.49133000      -1.76488000      -0.20544000
C       -6.56750000      -5.61272000      -0.12929000      -0.19254000
C       -9.09600000      -5.13053000      -1.25093000      -0.18711000
H       -8.06568000      -3.81548000      -2.60559000       0.23782000
C       -7.68578000      -6.25326000       0.39781000      -0.17168000
H       -5.58232000      -5.77262000       0.29090000       0.25689000
C       -8.93380000      -5.99112000      -0.16353000       0.06233000
H      -10.08415000      -4.97095000      -1.66403000       0.25134000
H       -7.60712000      -6.92834000       1.24002000       0.25601000
H        1.06886000       0.00695000       0.16745000       0.24203000
O        0.18278000      -2.30483000       0.21534000      -0.56161000
C       -0.43650000      -3.60266000       0.14518000      -0.22702000
H       -1.12311000      -3.74906000       0.98444000       0.18295000
H       -0.99178000      -3.71194000      -0.79044000       0.21223000
H        0.38780000      -4.31557000       0.19749000       0.18525000
O        0.18814000       2.25762000       0.44949000      -0.56586000
C       -0.38152000       3.56319000       0.56222000      -0.22061000
H       -1.14285000       3.59037000       1.34867000       0.18559000
H        0.44978000       4.22417000       0.81363000       0.18945000
H       -0.83490000       3.87510000      -0.38267000       0.18321000
C        1.81375000       1.49110000      -2.56071000      -0.16302000
C       -0.36103000       2.49430000      -2.86710000      -0.19482000
C        2.41615000       2.73012000      -2.75678000      -0.20807000
H        2.42486000       0.61659000      -2.35268000       0.22262000
C        0.24145000       3.73468000      -3.06519000      -0.21444000
H       -1.44015000       2.41708000      -2.89833000       0.21538000
C        1.63177000       3.85940000      -3.00956000      -0.19723000
H        3.49811000       2.81703000      -2.71117000       0.22229000
H       -0.37630000       4.60710000      -3.26231000       0.21830000
H        2.10058000       4.82728000      -3.16387000       0.21997000
H        0.50784000      -0.81969000      -2.43428000       0.25815000
O       -1.12524000      -2.51123000      -2.82191000      -0.42504000
C       -7.54092000      -1.92467000      -4.56646000      -0.62639000
H       -7.73360000      -1.81031000      -5.63954000       0.22839000
H       -7.05712000      -2.89190000      -4.41158000       0.26749000
H       -8.50677000      -1.92682000      -4.06250000       0.21963000
C       -6.59450000       2.12627000      -1.53641000      -0.59905000
H       -5.72834000       2.44317000      -0.95003000       0.22555000
H       -7.04164000       3.02998000      -1.97005000       0.23458000
H       -7.31852000       1.70839000      -0.84015000       0.22566000
C       -3.30391000       0.74835000      -5.18560000      -0.60406000
H       -2.69472000      -0.15727000      -5.15445000       0.23854000
H       -3.52285000       0.97206000      -6.23695000       0.23305000
H       -2.68578000       1.55187000      -4.79065000       0.22353000
N      -10.12409000      -6.62596000       0.42149000       0.50294000
O       -9.96195000      -7.36416000       1.39329000      -0.38994000
O      -11.21706000      -6.37518000      -0.08924000      -0.39663000
