123
R3TS20majorcNMe2.xyz  (col5 = NBO charge)
O       -0.74525000      -1.97048000       3.15144000      -0.50052000
N       -1.19859000      -0.82872000       3.40148000       0.44622000
C       -0.59736000       0.30957000       2.91126000      -0.19411000
C        0.53838000       0.24284000       2.09785000      -0.11122000
C        1.44861000       1.40080000       1.94734000      -0.07206000
O       -1.90233000      -1.45011000       0.00987000      -0.69027000
C       -0.68907000      -1.27674000       0.03308000       0.80938000
C        0.00262000       0.00175000      -0.01985000      -0.49263000
C       -0.72510000       1.22441000      -0.24936000       0.80314000
O       -1.89686000       1.47997000       0.06587000      -0.71774000
Ru      -4.95859000       0.69798000       3.08617000       0.24760000
S       -7.27958000      -1.46373000       3.60133000       2.25143000
O       -7.13464000      -1.06673000       5.01090000      -0.94035000
O       -8.40937000      -0.89754000       2.82305000      -0.96524000
N       -3.84205000      -0.14801000       1.49289000      -0.77396000
N       -5.82375000      -1.08575000       2.83321000      -0.84545000
C       -4.72820000      -1.00096000       0.64630000      -0.03251000
C       -5.52120000      -1.89683000       1.61766000      -0.05177000
C       -5.53555000      -0.12694000      -0.29502000      -0.04019000
C       -4.84535000       0.46360000      -1.36566000      -0.20276000
C       -5.51047000       1.29147000      -2.26830000      -0.21122000
C       -6.88025000       1.53160000      -2.11973000      -0.22167000
C       -7.57244000       0.94176000      -1.06073000      -0.21613000
C       -6.90383000       0.12106000      -0.14640000      -0.22282000
C       -4.73519000      -3.17283000       1.91132000      -0.03435000
C       -4.98081000      -4.31318000       1.13656000      -0.21530000
C       -4.23409000      -5.47645000       1.32475000      -0.21367000
C       -3.22043000      -5.50881000       2.28708000      -0.23032000
C       -2.96558000      -4.37137000       3.05595000      -0.20150000
C       -3.72445000      -3.21329000       2.87640000      -0.22174000
C       -3.95336000       2.83690000       3.19319000       0.00579000
C       -3.96782000       2.27822000       4.49316000       0.02917000
C       -5.21287000       1.76570000       5.04447000       0.01259000
C       -6.43381000       1.97063000       4.35177000       0.02421000
C       -6.38671000       2.36570000       2.96747000       0.04742000
C       -5.13352000       2.75768000       2.37240000       0.01196000
C       -2.71157000       3.44278000       2.57935000      -0.62752000
C       -5.19604000       1.09021000       6.39637000      -0.61105000
C       -7.69300000       2.44472000       2.21403000      -0.61611000
H       -3.15517000      -0.76730000       1.92813000       0.42664000
H       -4.08224000      -1.63828000       0.03953000       0.25889000
H       -6.45151000      -2.18994000       1.11826000       0.22928000
H       -3.77875000       0.28158000      -1.46997000       0.23540000
H       -4.96216000       1.74523000      -3.08972000       0.21780000
H       -7.40314000       2.17125000      -2.82608000       0.21709000
H       -8.63643000       1.12508000      -0.93408000       0.21887000
H       -7.45316000      -0.29976000       0.68924000       0.24095000
H       -5.77199000      -4.29523000       0.39094000       0.21422000
H       -4.44386000      -6.35585000       0.72027000       0.21227000
H       -2.62773000      -6.40992000       2.42668000       0.21211000
H       -2.15794000      -4.35777000       3.78105000       0.22491000
H       -3.51118000      -2.34724000       3.49257000       0.24602000
H       -2.97092000       4.37395000       2.06501000       0.22690000
H       -1.96168000       3.68854000       3.33053000       0.21733000
H       -2.25961000       2.77887000       1.83687000       0.26013000
H       -5.30197000       1.82641000       7.20479000       0.22328000
H       -5.99924000       0.35887000       6.46706000       0.25181000
H       -4.25836000       0.55313000       6.54871000       0.23272000
H       -7.55710000       2.67717000       1.16112000       0.22899000
H       -8.23940000       1.50130000       2.28659000       0.25279000
H       -8.31532000       3.23232000       2.65860000       0.22704000
H       -3.26017000       0.46685000       0.90611000       0.46130000
H       -1.10528000       1.21565000       3.19153000       0.21715000
C       -7.39551000      -3.22941000       3.52908000      -0.35658000
C       -6.58017000      -3.99387000       4.36974000      -0.15031000
C       -8.17768000      -3.84963000       2.55404000      -0.16883000
C       -6.51934000      -5.36703000       4.21303000      -0.26641000
H       -5.97470000      -3.50358000       5.12412000       0.24259000
C       -8.12123000      -5.22726000       2.39338000      -0.28183000
H       -8.81644000      -3.24612000       1.91727000       0.24043000
C       -7.26224000      -6.01944000       3.19654000       0.23615000
H       -5.85658000      -5.92936000       4.85720000       0.22907000
H       -8.72781000      -5.68208000       1.62045000       0.22547000
H        1.01681000      -0.02295000      -0.39837000       0.24820000
O        0.07942000       2.18487000      -0.77491000      -0.56809000
C       -0.46620000       3.51063000      -0.86780000      -0.04172000
H       -1.35880000       3.49441000      -1.50365000       0.18757000
H       -0.77473000       3.84463000       0.12910000       0.18016000
O        0.19076000      -2.29982000       0.16616000      -0.57901000
C       -0.38301000      -3.58785000       0.48406000      -0.05004000
H       -0.68191000      -4.07673000      -0.45141000       0.17704000
H       -1.27368000      -3.44023000       1.09547000       0.21645000
H        1.01131000      -0.73328000       2.05429000       0.25841000
C        2.75699000       1.18319000       1.48321000      -0.18189000
C        1.06129000       2.71901000       2.23813000      -0.20310000
C        3.64591000       2.24170000       1.31246000      -0.20696000
H        3.07058000       0.16902000       1.24751000       0.22078000
C        1.94833000       3.78075000       2.06796000      -0.21093000
H        0.05910000       2.92081000       2.59641000       0.21347000
C        3.24493000       3.54871000       1.60261000      -0.21051000
H        4.65302000       2.04734000       0.95355000       0.22006000
H        1.62542000       4.79255000       2.29974000       0.21703000
H        3.93655000       4.37642000       1.47113000       0.21850000
O       -2.23871000      -0.68286000       4.13004000      -0.52989000
C       -7.78095000       1.78214000       5.00454000      -0.60523000
H       -8.27635000       2.76228000       5.04204000       0.22021000
H       -8.42376000       1.09924000       4.44903000       0.24801000
H       -7.70089000       1.40341000       6.02041000       0.23131000
C       -5.04488000       3.17481000       0.92172000      -0.61540000
H       -5.18148000       4.26140000       0.82953000       0.22492000
H       -4.07700000       2.91442000       0.48975000       0.24245000
H       -5.80039000       2.68429000       0.31109000       0.23792000
C       -2.72810000       2.18486000       5.35231000      -0.61843000
H       -2.94414000       2.51826000       6.37219000       0.22459000
H       -2.37631000       1.14888000       5.38302000       0.26738000
H       -1.90845000       2.79474000       4.97406000       0.21649000
C        0.67060000      -4.37882000       1.23536000      -0.60488000
H        0.28220000      -5.37503000       1.47721000       0.20836000
H        1.58398000      -4.49592000       0.64169000       0.20116000
H        0.91517000      -3.86420000       2.16935000       0.21722000
C        0.62929000       4.39612000      -1.43342000      -0.60510000
H        0.27412000       5.42918000      -1.52115000       0.20886000
H        1.50360000       4.37718000      -0.77548000       0.21510000
H        0.93455000       4.04738000      -2.42535000       0.20952000
N       -7.14297000      -7.38056000       2.99469000      -0.49386000
C       -7.75786000      -7.98177000       1.82203000      -0.36434000
C       -6.05941000      -8.10087000       3.65177000      -0.36678000
H       -7.56323000      -9.05568000       1.82478000       0.20908000
H       -8.84548000      -7.84440000       1.83422000       0.20098000
H       -7.36907000      -7.56035000       0.88138000       0.19001000
H       -5.07616000      -7.67116000       3.41154000       0.19852000
H       -6.18396000      -8.09255000       4.74126000       0.20041000
H       -6.07413000      -9.14293000       3.32755000       0.20763000
