113
R3TS2minorsCN.xyz  (col5 = NBO charge)
O       -3.16874000      -1.89866000      -2.80849000      -0.39959000
N       -1.91209000      -1.61609000      -2.72467000       0.48745000
C       -1.50631000      -0.29889000      -2.61560000      -0.15292000
C       -0.17610000      -0.00172000      -2.38554000      -0.09778000
C        0.39665000       1.33471000      -2.57911000      -0.05513000
O       -1.88357000       1.49663000      -0.05857000      -0.70638000
C       -0.69130000       1.25873000       0.14299000       0.78357000
C        0.00146000      -0.00027000      -0.00113000      -0.50334000
C       -0.67241000      -1.26141000       0.11349000       0.78629000
O       -1.89566000      -1.44771000       0.04590000      -0.71609000
Ru      -4.91374000      -0.68131000      -2.52077000       0.15536000
S       -5.27536000      -3.82190000      -1.74885000       2.24917000
O       -5.39078000      -3.82458000      -3.22187000      -0.95151000
O       -4.08723000      -4.41271000      -1.10580000      -0.94590000
N       -4.21363000      -0.03434000      -0.63536000      -0.73999000
N       -5.58240000      -2.26419000      -1.22936000      -0.87459000
C       -5.18211000      -0.52104000       0.38186000      -0.01984000
C       -5.20691000      -2.05083000       0.19580000      -0.06136000
C       -4.90730000      -0.04076000       1.79292000      -0.05221000
C       -5.97774000       0.43298000       2.56274000      -0.20062000
C       -5.78143000       0.85724000       3.87695000      -0.21167000
C       -4.50270000       0.82011000       4.43639000      -0.21379000
C       -3.42998000       0.35175000       3.67456000      -0.20603000
C       -3.62788000      -0.07986000       2.36231000      -0.20648000
C       -6.15801000      -2.68083000       1.19921000      -0.02996000
C       -5.64713000      -3.35716000       2.31057000      -0.20420000
C       -6.50472000      -3.90452000       3.26668000      -0.20749000
C       -7.88713000      -3.78257000       3.11751000      -0.22044000
C       -8.40522000      -3.10411000       2.01050000      -0.20864000
C       -7.54481000      -2.55368000       1.06267000      -0.21642000
C       -5.03716000       1.39194000      -3.49948000       0.00108000
C       -6.22529000       1.08573000      -2.71969000       0.01681000
C       -6.99743000      -0.07790000      -3.02042000       0.01321000
C       -6.61857000      -0.91437000      -4.14152000       0.05230000
C       -5.38337000      -0.70507000      -4.78888000       0.00366000
C       -4.58005000       0.46561000      -4.47087000       0.01549000
C       -4.29054000       2.67454000      -3.18398000      -0.60674000
C       -8.22283000      -0.46794000      -2.22808000      -0.60272000
C       -4.92325000      -1.72782000      -5.80253000      -0.61087000
H       -4.06866000       0.97021000      -0.54446000       0.41547000
H       -6.16812000      -0.14735000       0.08844000       0.21347000
H       -4.19177000      -2.41969000       0.39038000       0.24343000
H       -6.97746000       0.44856000       2.13473000       0.21289000
H       -6.62481000       1.21565000       4.46130000       0.21637000
H       -4.34380000       1.15321000       5.45871000       0.21597000
H       -2.43129000       0.31946000       4.10247000       0.21696000
H       -2.79233000      -0.44482000       1.77912000       0.24178000
H       -4.57055000      -3.45599000       2.42202000       0.22225000
H       -6.09252000      -4.43090000       4.12366000       0.21612000
H       -8.55731000      -4.21548000       3.85575000       0.21379000
H       -9.48079000      -3.01443000       1.88052000       0.21305000
H       -7.94326000      -2.05337000       0.18701000       0.21851000
H       -4.99175000       3.50748000      -3.07841000       0.23156000
H       -3.72526000       2.60581000      -2.24610000       0.23155000
H       -3.59236000       2.94939000      -3.97390000       0.22446000
H       -9.14049000      -0.22370000      -2.77796000       0.22815000
H       -8.20620000      -1.54094000      -2.02729000       0.23983000
H       -8.27245000       0.03029000      -1.26097000       0.21955000
H       -3.90869000      -1.54803000      -6.15224000       0.22442000
H       -4.94773000      -2.72289000      -5.34948000       0.26122000
H       -5.58192000      -1.72787000      -6.68032000       0.22280000
H       -3.28100000      -0.43695000      -0.43820000       0.47160000
H       -2.31103000       0.41415000      -2.58295000       0.23069000
C       -6.69100000      -4.76295000      -1.14330000      -0.26516000
C       -7.94723000      -4.57144000      -1.71756000      -0.19983000
C       -6.52847000      -5.63447000      -0.06801000      -0.18543000
C       -9.05218000      -5.23242000      -1.18569000      -0.21814000
H       -8.05790000      -3.91308000      -2.57108000       0.22607000
C       -7.64154000      -6.28813000       0.45538000      -0.20575000
H       -5.54221000      -5.77255000       0.35901000       0.24557000
C       -8.91963000      -6.08651000      -0.08185000      -0.01507000
H      -10.03354000      -5.08058000      -1.62976000       0.21463000
H       -7.51806000      -6.95233000       1.30721000       0.21878000
C      -10.12519000      -6.74620000       0.54343000      -0.60673000
H      -10.42881000      -6.21107000       1.45341000       0.22077000
H      -10.98287000      -6.75391000      -0.13730000       0.21310000
H       -9.91215000      -7.78112000       0.83399000       0.21887000
H        1.07008000       0.00712000       0.17199000       0.24242000
O        0.17870000      -2.30489000       0.22987000      -0.56007000
C       -0.44492000      -3.60293000       0.17025000      -0.22738000
H       -1.13484000      -3.73768000       1.00840000       0.18464000
H       -0.99793000      -3.71919000      -0.76576000       0.21350000
H        0.37743000      -4.31705000       0.23226000       0.18591000
O        0.18341000       2.25613000       0.46422000      -0.56670000
C       -0.39235000       3.55792000       0.60325000      -0.22146000
H       -1.13630000       3.57015000       1.40630000       0.18776000
H        0.43949000       4.22203000       0.84341000       0.19189000
H       -0.87078000       3.87639000      -0.32697000       0.18210000
C        1.79149000       1.50202000      -2.49755000      -0.16660000
C       -0.39645000       2.46772000      -2.83820000      -0.19620000
C        2.37766000       2.74901000      -2.65712000      -0.14672000
H        2.41584000       0.63805000      -2.28823000       0.23162000
C        0.17784000       3.72125000      -3.00191000      -0.15350000
H       -1.47217000       2.37159000      -2.89845000       0.22492000
C        1.57155000       3.87418000      -2.90853000      -0.19028000
H        3.45418000       2.86468000      -2.58608000       0.23749000
H       -0.44451000       4.58857000      -3.19873000       0.23371000
H        0.51623000      -0.83562000      -2.41970000       0.26104000
O       -1.09608000      -2.54132000      -2.81373000      -0.42341000
C       -7.49804000      -2.05048000      -4.60269000      -0.62825000
H       -7.61820000      -2.00791000      -5.69087000       0.22654000
H       -7.03729000      -3.00918000      -4.35083000       0.27168000
H       -8.49398000      -2.00823000      -4.16223000       0.21959000
C       -6.63571000       2.06720000      -1.64282000      -0.59870000
H       -5.78451000       2.39952000      -1.04291000       0.22452000
H       -7.07770000       2.96068000      -2.10221000       0.23400000
H       -7.37346000       1.65766000      -0.95609000       0.22587000
C       -3.28893000       0.66619000      -5.23368000      -0.60207000
H       -2.65545000      -0.22025000      -5.16046000       0.23734000
H       -3.50157000       0.84052000      -6.29545000       0.23322000
H       -2.69746000       1.50245000      -4.86621000       0.22063000
C        2.16304000       5.16851000      -3.06737000       0.32291000
N        2.63803000       6.22316000      -3.19446000      -0.36121000
