124
R3TS20majorsCNcNMe2.xyz  (col5 = NBO charge)
O       -0.76488000      -2.02997000       3.14086000      -0.49537000
N       -1.25380000      -0.90061000       3.37313000       0.44964000
C       -0.66186000       0.25288000       2.90003000      -0.19612000
C        0.48796000       0.20783000       2.10683000      -0.12962000
C        1.37785000       1.38275000       1.97562000      -0.02970000
O       -1.90261000      -1.44705000       0.01533000      -0.68521000
C       -0.68934000      -1.27871000       0.02568000       0.80919000
C        0.00379000       0.00141000      -0.01713000      -0.48303000
C       -0.72461000       1.22673000      -0.24630000       0.80157000
O       -1.89797000       1.47689000       0.06202000      -0.71144000
Ru      -5.07226000       0.65720000       2.98717000       0.24528000
S       -7.39334000      -1.52374000       3.40482000       2.25082000
O       -7.28315000      -1.15549000       4.82505000      -0.93959000
O       -8.50175000      -0.94137000       2.60879000      -0.96386000
N       -3.90062000      -0.15724000       1.41850000      -0.77315000
N       -5.91819000      -1.12261000       2.68017000      -0.84235000
C       -4.75953000      -0.99505000       0.52960000      -0.03194000
C       -5.57584000      -1.91230000       1.46091000      -0.05203000
C       -5.54472000      -0.10272000      -0.41373000      -0.04076000
C       -4.82915000       0.51334000      -1.45274000      -0.20327000
C       -5.47289000       1.35938000      -2.35415000      -0.21090000
C       -6.84672000       1.59267000      -2.23608000      -0.22092000
C       -7.56430000       0.97770000      -1.20871000      -0.21543000
C       -6.91734000       0.13859000      -0.29560000      -0.22240000
C       -4.79238000      -3.18986000       1.75462000      -0.03413000
C       -5.00644000      -4.31571000       0.95002000      -0.21498000
C       -4.25804000      -5.47801000       1.13813000      -0.21288000
C       -3.27435000      -5.52380000       2.13047000      -0.22963000
C       -3.05122000      -4.40090000       2.93013000      -0.20211000
C       -3.81207000      -3.24427000       2.74987000      -0.22230000
C       -4.06694000       2.78818000       3.16280000       0.00668000
C       -4.10875000       2.19731000       4.44856000       0.02737000
C       -5.36672000       1.67838000       4.96300000       0.01577000
C       -6.57290000       1.90165000       4.24941000       0.02282000
C       -6.49584000       2.32990000       2.87654000       0.04927000
C       -5.23043000       2.73500000       2.31725000       0.01070000
C       -2.80937000       3.40166000       2.58846000      -0.62603000
C       -5.38025000       0.97266000       6.29928000      -0.61146000
C       -7.78488000       2.42054000       2.09522000      -0.61620000
H       -3.22728000      -0.78214000       1.86693000       0.42775000
H       -4.09531000      -1.61808000      -0.07258000       0.25770000
H       -6.48995000      -2.20016000       0.92970000       0.22973000
H       -3.75971000       0.33631000      -1.53444000       0.23362000
H       -4.90492000       1.83214000      -3.15108000       0.21806000
H       -7.35303000       2.24626000      -2.94163000       0.21765000
H       -8.63184000       1.15508000      -1.10610000       0.21936000
H       -7.48791000      -0.30199000       0.51525000       0.24112000
H       -5.77416000      -4.28757000       0.18062000       0.21446000
H       -4.44338000      -6.34631000       0.51019000       0.21264000
H       -2.68059000      -6.42409000       2.27046000       0.21247000
H       -2.26708000      -4.39761000       3.68074000       0.22520000
H       -3.62482000      -2.39006000       3.39013000       0.24516000
H       -3.05385000       4.34346000       2.08666000       0.22795000
H       -2.07753000       3.63156000       3.36243000       0.21675000
H       -2.34093000       2.75138000       1.84385000       0.25811000
H       -5.50612000       1.69107000       7.12066000       0.22408000
H       -6.18413000       0.23956000       6.33510000       0.25212000
H       -4.44590000       0.43303000       6.46237000       0.23254000
H       -7.62607000       2.67590000       1.05084000       0.22899000
H       -8.32805000       1.47320000       2.13518000       0.25292000
H       -8.42103000       3.19564000       2.54194000       0.22780000
H       -3.30179000       0.46640000       0.86020000       0.45986000
H       -1.19945000       1.14698000       3.16344000       0.21813000
C       -7.50132000      -3.28691000       3.29111000      -0.35859000
C       -6.70977000      -4.06753000       4.13992000      -0.15001000
C       -8.24968000      -3.88753000       2.27765000      -0.16867000
C       -6.63773000      -5.43633000       3.95375000      -0.26658000
H       -6.13158000      -3.59263000       4.92492000       0.24321000
C       -8.18205000      -5.26071000       2.08748000      -0.28182000
H       -8.87130000      -3.27219000       1.63525000       0.24053000
C       -7.34474000      -6.06797000       2.89895000       0.23690000
H       -5.99452000      -6.01123000       4.60659000       0.22929000
H       -8.76254000      -5.70016000       1.28617000       0.22571000
H        1.01787000      -0.02243000      -0.39687000       0.24786000
O        0.08339000       2.19074000      -0.75872000      -0.56896000
C       -0.47371000       3.51223000      -0.87197000      -0.04232000
H       -1.35947000       3.47832000      -1.51617000       0.18966000
H       -0.79737000       3.85209000       0.11832000       0.17980000
O        0.18970000      -2.30256000       0.14121000      -0.57777000
C       -0.38518000      -3.59542000       0.44346000      -0.05091000
H       -0.70385000      -4.06227000      -0.49642000       0.17860000
H       -1.26369000      -3.45497000       1.07387000       0.21735000
H        0.98084000      -0.75872000       2.06873000       0.26177000
C        2.69339000       1.19738000       1.51424000      -0.18276000
C        0.95944000       2.69112000       2.27328000      -0.20297000
C        3.55659000       2.27035000       1.34004000      -0.14491000
H        3.03301000       0.19283000       1.27690000       0.23032000
C        1.81107000       3.77506000       2.10368000      -0.14996000
H       -0.04564000       2.86858000       2.63380000       0.22345000
C        3.11869000       3.57492000       1.62949000      -0.19990000
H        4.56760000       2.11083000       0.97938000       0.23603000
H        1.47160000       4.78046000       2.33216000       0.23286000
O       -2.31720000      -0.77406000       4.06625000      -0.52511000
C       -7.93385000       1.69670000       4.86772000      -0.60518000
H       -8.43353000       2.67415000       4.91408000       0.22064000
H       -8.56143000       1.02320000       4.28392000       0.24797000
H       -7.87555000       1.29748000       5.87722000       0.23144000
C       -5.11101000       3.18515000       0.87865000      -0.61428000
H       -5.24553000       4.27350000       0.80773000       0.22562000
H       -4.13424000       2.93409000       0.46145000       0.24038000
H       -5.85281000       2.70863000       0.24075000       0.23828000
C       -2.88533000       2.07614000       5.32779000      -0.61778000
H       -3.11785000       2.38649000       6.35122000       0.22536000
H       -2.53802000       1.03834000       5.34067000       0.26660000
H       -2.05600000       2.69080000       4.97950000       0.21570000
C        0.67849000      -4.40615000       1.15804000      -0.60472000
H        0.29008000      -5.40569000       1.38518000       0.20963000
H        1.58029000      -4.51426000       0.54546000       0.20200000
H        0.94277000      -3.91416000       2.09895000       0.21608000
C        0.61623000       4.40382000      -1.43811000      -0.60378000
H        0.24810000       5.43022000      -1.54437000       0.21218000
H        1.48615000       4.41159000      -0.77433000       0.21171000
H        0.93690000       4.04567000      -2.42155000       0.21146000
C        3.99263000       4.69312000       1.43797000       0.32400000
N        4.69653000       5.60592000       1.27809000      -0.36566000
N       -7.21214000      -7.42255000       2.66915000      -0.49294000
C       -7.79479000      -8.00201000       1.46930000      -0.36439000
C       -6.15103000      -8.15625000       3.34766000      -0.36674000
H       -7.59424000      -9.07465000       1.45417000       0.20938000
H       -8.88313000      -7.87023000       1.45717000       0.20116000
H       -7.38486000      -7.55881000       0.54796000       0.19021000
H       -5.16143000      -7.71784000       3.15396000       0.19868000
H       -6.31505000      -8.17554000       4.43183000       0.20046000
H       -6.14973000      -9.18976000       2.99707000       0.20792000
