119
R3TS20minorsNO2cNO2.xyz  (col5 = NBO charge)
O       -3.25041000      -1.93068000      -2.72392000      -0.39603000
N       -1.99347000      -1.64569000      -2.70073000       0.49209000
C       -1.58941000      -0.32208000      -2.61214000      -0.14043000
C       -0.25738000      -0.01376000      -2.45332000      -0.09325000
C        0.28798000       1.33367000      -2.62747000      -0.05162000
O       -1.88563000       1.49437000      -0.05543000      -0.71485000
C       -0.68877000       1.26015000       0.13362000       0.77993000
C       -0.00009000      -0.00142000       0.01156000      -0.51160000
C       -0.66987000      -1.26184000       0.10358000       0.78216000
O       -1.89711000      -1.44531000       0.04935000      -0.72714000
Ru      -4.99964000      -0.73526000      -2.35247000       0.15056000
S       -5.23815000      -3.86831000      -1.51775000       2.25607000
O       -5.43822000      -3.90945000      -2.97951000      -0.94543000
O       -4.01782000      -4.44089000      -0.92259000      -0.94000000
N       -4.22732000      -0.04410000      -0.51246000      -0.74271000
N       -5.55601000      -2.32189000      -1.00374000      -0.87834000
C       -5.13005000      -0.54121000       0.55968000      -0.01978000
C       -5.11851000      -2.07330000       0.40058000      -0.06349000
C       -4.79627000      -0.03166000       1.94728000      -0.05479000
C       -5.83550000       0.44256000       2.75824000      -0.20085000
C       -5.58240000       0.89470000       4.05341000      -0.21111000
C       -4.27795000       0.88476000       4.55103000      -0.21197000
C       -3.23618000       0.41576000       3.74761000      -0.20510000
C       -3.49046000      -0.04359000       2.45485000      -0.20492000
C       -6.00091000      -2.72196000       1.45213000      -0.03581000
C       -5.41773000      -3.40976000       2.52015000      -0.20404000
C       -6.21257000      -3.99929000       3.50535000      -0.20700000
C       -7.60347000      -3.90739000       3.42996000      -0.21653000
C       -8.19358000      -3.21042000       2.37104000      -0.21091000
C       -7.39577000      -2.61880000       1.39350000      -0.21931000
C       -5.19830000       1.31501000      -3.35380000       0.00140000
C       -6.34215000       1.01295000      -2.50997000       0.02193000
C       -7.11373000      -0.16627000      -2.74611000       0.01344000
C       -6.78533000      -1.01947000      -3.87170000       0.05200000
C       -5.59537000      -0.80328000      -4.59669000       0.00606000
C       -4.78229000       0.37314000      -4.33023000       0.01878000
C       -4.44698000       2.60940000      -3.10366000      -0.60805000
C       -8.29266000      -0.55133000      -1.88348000      -0.60200000
C       -5.18370000      -1.83313000      -5.62428000      -0.61194000
H       -4.10735000       0.96541000      -0.44221000       0.41582000
H       -6.13986000      -0.19936000       0.31124000       0.21388000
H       -4.08524000      -2.40949000       0.54758000       0.24795000
H       -6.85467000       0.43834000       2.37835000       0.21251000
H       -6.40156000       1.25351000       4.67086000       0.21723000
H       -4.07504000       1.23960000       5.55805000       0.21679000
H       -2.21786000       0.40501000       4.12742000       0.21785000
H       -2.67893000      -0.40809000       1.83866000       0.24156000
H       -4.33496000      -3.48922000       2.57130000       0.22369000
H       -5.74556000      -4.53764000       4.32580000       0.21862000
H       -8.22518000      -4.37915000       4.18590000       0.21927000
H       -9.27611000      -3.14052000       2.30220000       0.21635000
H       -7.85148000      -2.10307000       0.55486000       0.21715000
H       -5.14916000       3.43673000      -2.96676000       0.23378000
H       -3.82269000       2.56112000      -2.20261000       0.23141000
H       -3.80401000       2.87905000      -3.94099000       0.22631000
H       -9.23919000      -0.34167000      -2.39710000       0.23077000
H       -8.24799000      -1.61681000      -1.64965000       0.23642000
H       -8.30774000      -0.02186000      -0.93216000       0.22070000
H       -4.24423000      -1.58944000      -6.11606000       0.22438000
H       -5.06784000      -2.80548000      -5.13528000       0.26202000
H       -5.94844000      -1.92939000      -6.40412000       0.22491000
H       -3.27466000      -0.41903000      -0.35375000       0.47493000
H       -2.39761000       0.38414000      -2.54091000       0.22997000
C       -6.61279000      -4.83097000      -0.82747000      -0.21177000
C       -7.89534000      -4.66885000      -1.35740000      -0.20474000
C       -6.37985000      -5.67941000       0.25382000      -0.19170000
C       -8.97020000      -5.32604000      -0.77109000      -0.18685000
H       -8.04692000      -4.02785000      -2.21660000       0.23778000
C       -7.45103000      -6.33666000       0.85330000      -0.17158000
H       -5.37249000      -5.78989000       0.63552000       0.25684000
C       -8.73041000      -6.13851000       0.33861000       0.06342000
H       -9.98042000      -5.21586000      -1.14505000       0.25182000
H       -7.31235000      -6.97590000       1.71549000       0.25640000
H        1.07217000       0.00598000       0.15884000       0.23987000
O        0.17815000      -2.31006000       0.18504000      -0.57205000
C       -0.44109000      -3.61983000       0.13112000      -0.05084000
H       -1.06145000      -3.75343000       1.02459000       0.18202000
H       -1.09979000      -3.67147000      -0.74022000       0.21441000
O        0.19298000       2.26057000       0.41939000      -0.58074000
C       -0.35697000       3.58356000       0.54422000      -0.04176000
H       -1.06412000       3.60079000       1.38196000       0.18717000
H       -0.91508000       3.83242000      -0.36359000       0.18212000
C        1.67851000       1.53330000      -2.52367000      -0.15861000
C       -0.53114000       2.44969000      -2.88579000      -0.18959000
C        2.23479000       2.79831000      -2.64371000      -0.18029000
H        2.32092000       0.68240000      -2.31722000       0.23360000
C        0.01070000       3.72128000      -3.01738000      -0.18574000
H       -1.60227000       2.32719000      -2.97039000       0.22371000
C        1.38881000       3.88289000      -2.88429000       0.05928000
H        3.30058000       2.96264000      -2.54643000       0.25575000
H       -0.61152000       4.58686000      -3.20828000       0.25273000
H        0.44508000      -0.83892000      -2.48905000       0.26178000
O       -1.17865000      -2.56437000      -2.83111000      -0.40783000
C       -7.67014000      -2.17742000      -4.26332000      -0.62687000
H       -7.91676000      -2.10804000      -5.32911000       0.22946000
H       -7.14999000      -3.12394000      -4.09750000       0.26798000
H       -8.61044000      -2.18871000      -3.71349000       0.22032000
C       -6.70534000       2.00895000      -1.42963000      -0.59966000
H       -5.82556000       2.37423000      -0.89391000       0.22542000
H       -7.19676000       2.88122000      -1.87927000       0.23633000
H       -7.38711000       1.59975000      -0.68715000       0.22644000
C       -3.52615000       0.56774000      -5.15047000      -0.60357000
H       -2.90380000      -0.32898000      -5.12023000       0.23747000
H       -3.78514000       0.76265000      -6.19836000       0.23571000
H       -2.90728000       1.39032000      -4.79808000       0.22126000
C        0.68300000      -4.63499000       0.05815000      -0.60229000
H        0.26515000      -5.64700000       0.02611000       0.21424000
H        1.27987000      -4.48002000      -0.84661000       0.20714000
H        1.34434000      -4.55710000       0.92788000       0.20374000
C        0.80921000       4.53062000       0.76421000      -0.60273000
H        0.44904000       5.56172000       0.84860000       0.21281000
H        1.35003000       4.27425000       1.68084000       0.21098000
H        1.51267000       4.47623000      -0.07242000       0.20510000
N        1.96018000       5.23154000      -2.98247000       0.50097000
O        1.19628000       6.15868000      -3.25610000      -0.39405000
O        3.16786000       5.35688000      -2.77693000      -0.38861000
N       -9.87135000      -6.79029000       0.99957000       0.50292000
O       -9.64090000      -7.48244000       1.99103000      -0.38913000
O      -10.99301000      -6.59784000       0.52773000      -0.39569000
