126
R3TS20majorsNMe2.xyz  (col5 = NBO charge)
O       -1.34538000      -2.08855000       3.33083000      -0.45765000
N       -1.93779000      -1.00590000       3.17698000       0.46494000
C       -1.29578000       0.13059000       2.76026000      -0.16835000
C        0.04075000       0.09904000       2.35394000      -0.05540000
C        0.93838000       1.24739000       2.42742000      -0.18641000
O       -1.88721000      -1.52265000       0.10100000      -0.70509000
C       -0.69207000      -1.28479000      -0.07670000       0.79179000
C       -0.03514000      -0.00645000      -0.00493000      -0.51067000
C       -0.70007000       1.25727000      -0.16512000       0.79037000
O       -1.89625000       1.53589000      -0.01465000      -0.72594000
Ru      -4.87323000       0.37503000       2.77737000       0.18961000
S       -7.12451000      -1.95670000       3.00711000       2.25858000
O       -6.92937000      -1.77836000       4.45818000      -0.95079000
O       -8.35516000      -1.36240000       2.40970000      -0.98886000
N       -4.06122000      -0.05139000       0.87677000      -0.74382000
N       -5.76020000      -1.45800000       2.24541000      -0.87806000
C       -4.93400000      -0.88503000      -0.00112000      -0.02456000
C       -5.56792000      -1.98936000       0.87457000      -0.04735000
C       -5.89225000      -0.00101000      -0.77725000      -0.04001000
C       -5.35428000       0.77476000      -1.81734000      -0.21046000
C       -6.16169000       1.63160000      -2.56278000      -0.21218000
C       -7.53002000       1.71610000      -2.28556000      -0.22151000
C       -8.07335000       0.94054000      -1.26082000      -0.21168000
C       -7.26017000       0.08944000      -0.50490000      -0.22371000
C       -4.73573000      -3.27272000       0.83913000      -0.02899000
C       -4.94824000      -4.19061000      -0.19623000      -0.21587000
C       -4.21980000      -5.38001000      -0.25735000      -0.21753000
C       -3.26782000      -5.66549000       0.72528000      -0.23183000
C       -3.05079000      -4.74988000       1.75722000      -0.21227000
C       -3.77937000      -3.56219000       1.81407000      -0.20376000
C       -4.23435000       2.58931000       3.10368000      -0.01631000
C       -4.16807000       1.89883000       4.34106000       0.04302000
C       -5.33478000       1.20996000       4.86379000      -0.03417000
C       -6.56562000       1.31614000       4.17583000       0.08056000
C       -6.60085000       1.85345000       2.83860000      -0.00818000
C       -5.41657000       2.44410000       2.28773000       0.03531000
C       -3.10870000       3.45134000       2.57157000      -0.62359000
C       -5.25081000       0.44439000       6.16531000      -0.60640000
C       -7.93998000       1.93613000       2.14578000      -0.61532000
H       -3.18890000      -0.58561000       0.98218000       0.45479000
H       -4.26860000      -1.36719000      -0.72600000       0.23832000
H       -6.53285000      -2.23694000       0.41614000       0.22442000
H       -4.28857000       0.71204000      -2.03044000       0.22464000
H       -5.72751000       2.22671000      -3.36187000       0.21841000
H       -8.16597000       2.37779000      -2.86779000       0.21757000
H       -9.13465000       1.00211000      -1.03417000       0.21947000
H       -7.69640000      -0.47822000       0.31021000       0.24548000
H       -5.70493000      -3.98402000      -0.95107000       0.21143000
H       -4.40506000      -6.08674000      -1.06282000       0.21137000
H       -2.70340000      -6.59427000       0.68600000       0.21025000
H       -2.31136000      -4.95164000       2.52635000       0.21564000
H       -3.62761000      -2.86979000       2.63031000       0.24891000
H       -3.51912000       4.38577000       2.17484000       0.22855000
H       -2.40088000       3.72629000       3.35344000       0.21726000
H       -2.56142000       2.96619000       1.75603000       0.25211000
H       -5.55552000       1.06883000       7.01615000       0.21862000
H       -5.89216000      -0.43578000       6.11873000       0.25297000
H       -4.23805000       0.08823000       6.35354000       0.22639000
H       -7.86579000       2.32316000       1.13304000       0.22629000
H       -8.41924000       0.95615000       2.10371000       0.25560000
H       -8.59502000       2.60971000       2.71443000       0.22128000
H       -3.72578000       0.76707000       0.36703000       0.43707000
H       -1.92147000       1.00337000       2.72112000       0.22696000
C       -7.22191000      -3.71643000       2.67729000      -0.28829000
C       -6.35267000      -4.57667000       3.34990000      -0.17080000
C       -8.08793000      -4.19215000       1.69453000      -0.19372000
C       -6.33012000      -5.92240000       3.00123000      -0.20482000
H       -5.68848000      -4.18313000       4.11134000       0.24330000
C       -8.05262000      -5.54475000       1.35683000      -0.21781000
H       -8.76770000      -3.50457000       1.20263000       0.24094000
C       -7.15938000      -6.42129000       1.98565000      -0.00383000
H       -5.63563000      -6.59225000       3.50155000       0.22005000
H       -8.71592000      -5.92088000       0.58157000       0.21711000
C       -7.04472000      -7.86151000       1.55010000      -0.60807000
H       -6.17012000      -7.98772000       0.89792000       0.22518000
H       -6.91175000      -8.53327000       2.40562000       0.21771000
H       -7.92729000      -8.18959000       0.99124000       0.21313000
H        1.02509000      -0.00532000      -0.22065000       0.24086000
O        0.21431000       2.23509000      -0.43985000      -0.57713000
C       -0.27352000       3.58179000      -0.49126000      -0.04076000
H       -1.06910000       3.65796000      -1.24133000       0.18624000
H       -0.70385000       3.85015000       0.47999000       0.17825000
O        0.21620000      -2.27248000      -0.31571000      -0.58118000
C       -0.23277000      -3.64148000      -0.21184000      -0.04926000
H        0.19863000      -4.15557000      -1.07690000       0.18006000
H       -1.32158000      -3.67866000      -0.27387000       0.21420000
H        0.51180000      -0.87843000       2.37880000       0.25353000
C        2.30147000       1.09354000       2.11286000      -0.13375000
C        0.51228000       2.53851000       2.77831000      -0.06108000
C        3.18270000       2.16105000       2.11858000      -0.27602000
H        2.66859000       0.10970000       1.83077000       0.22031000
C        1.37790000       3.62191000       2.79181000      -0.32227000
H       -0.52280000       2.70489000       3.04460000       0.20171000
C        2.74345000       3.46796000       2.45027000       0.22223000
H        4.21683000       1.98042000       1.85243000       0.22506000
H        0.98547000       4.59361000       3.06612000       0.22051000
O       -3.19713000      -0.94734000       3.51419000      -0.46292000
C       -7.87101000       0.92801000       4.82268000      -0.61385000
H       -8.42306000       1.85864000       5.02041000       0.22178000
H       -8.48594000       0.29980000       4.17983000       0.25424000
H       -7.73410000       0.40344000       5.76391000       0.23343000
C       -5.42180000       3.05428000       0.90423000      -0.61316000
H       -5.70180000       4.11506000       0.96075000       0.22863000
H       -4.43831000       2.99467000       0.43375000       0.23135000
H       -6.12350000       2.55258000       0.24169000       0.24018000
C       -2.90740000       1.85716000       5.17526000      -0.60571000
H       -3.10844000       2.23872000       6.18252000       0.23082000
H       -2.55628000       0.82631000       5.26953000       0.24420000
H       -2.09109000       2.43883000       4.75160000       0.21865000
C        0.26572000      -4.23205000       1.09842000      -0.61924000
H       -0.02898000      -5.28500000       1.17363000       0.20840000
H        1.35793000      -4.16923000       1.16107000       0.20049000
H       -0.17130000      -3.68928000       1.94113000       0.22666000
C        0.91523000       4.46640000      -0.82471000      -0.60428000
H        0.60671000       5.51740000      -0.86769000       0.20707000
H        1.68985000       4.35662000      -0.05944000       0.21129000
H        1.34466000       4.18958000      -1.79310000       0.20961000
N        3.61089000       4.54492000       2.44350000      -0.49207000
C        3.08185000       5.88994000       2.59953000      -0.36462000
C        4.96098000       4.37640000       1.92975000      -0.36486000
H        3.90246000       6.60774000       2.55138000       0.21065000
H        2.35286000       6.14582000       1.81492000       0.19074000
H        2.59143000       6.01214000       3.57339000       0.19915000
H        5.51618000       3.63440000       2.51645000       0.20081000
H        4.97206000       4.05755000       0.87615000       0.19307000
H        5.49586000       5.32460000       2.00667000       0.20950000
