117
R3TS20majorcNO2.xyz  (col5 = NBO charge)
O       -1.78313000      -2.15145000       3.27183000      -0.41040000
N       -2.34336000      -1.07713000       3.02506000       0.48840000
C       -1.62337000       0.07683000       2.73389000      -0.14492000
C       -0.26132000       0.03325000       2.54772000      -0.04984000
C        0.63975000       1.18046000       2.64946000      -0.10174000
O       -1.88938000      -1.52636000       0.10691000      -0.72847000
C       -0.69048000      -1.27938000      -0.07295000       0.78176000
C       -0.03982000      -0.00723000      -0.02875000      -0.54049000
C       -0.69201000       1.25880000      -0.13240000       0.77987000
O       -1.89906000       1.53343000      -0.03320000      -0.74691000
Ru      -5.20854000       0.35636000       2.19883000       0.18793000
S       -7.46944000      -1.96308000       2.07310000       2.25767000
O       -7.49195000      -1.80727000       3.53809000      -0.94320000
O       -8.60329000      -1.37932000       1.30438000      -0.97957000
N       -4.14696000      -0.03975000       0.42284000      -0.75042000
N       -6.01065000      -1.47149000       1.52216000      -0.88096000
C       -4.87679000      -0.86880000      -0.58099000      -0.02376000
C       -5.63714000      -1.98091000       0.17691000      -0.04703000
C       -5.70528000       0.02197000      -1.48861000      -0.04205000
C       -5.01276000       0.80649000      -2.42575000      -0.20967000
C       -5.69421000       1.67644000      -3.27443000      -0.21013000
C       -7.08835000       1.76646000      -3.20663000      -0.21931000
C       -7.78425000       0.98227000      -2.28624000      -0.21055000
C       -7.09839000       0.11716000      -1.42701000      -0.22437000
C       -4.83142000      -3.27930000       0.23655000      -0.03618000
C       -4.95539000      -4.20198000      -0.80916000      -0.21752000
C       -4.26545000      -5.41552000      -0.77731000      -0.21602000
C       -3.43933000      -5.71930000       0.30797000      -0.22520000
C       -3.30638000      -4.79741000       1.34867000      -0.21430000
C       -3.99731000      -3.58661000       1.31351000      -0.20284000
C       -4.60152000       2.55571000       2.65643000      -0.01126000
C       -4.72951000       1.84194000       3.87711000       0.04340000
C       -5.97160000       1.16998000       4.21395000      -0.03218000
C       -7.08058000       1.29428000       3.34637000       0.08135000
C       -6.90423000       1.84216000       2.02395000      -0.00374000
C       -5.64716000       2.43673000       1.66990000       0.04088000
C       -3.40019000       3.41301000       2.31886000      -0.62801000
C       -6.10443000       0.40190000       5.51015000      -0.60713000
C       -8.11873000       1.93844000       1.13206000      -0.61504000
H       -3.28175000      -0.56002000       0.63507000       0.45987000
H       -4.10768000      -1.34731000      -1.19785000       0.23900000
H       -6.53512000      -2.20350000      -0.41191000       0.22368000
H       -3.92737000       0.74047000      -2.47617000       0.22549000
H       -5.14136000       2.27722000      -3.99160000       0.21980000
H       -7.62569000       2.43840000      -3.87047000       0.21869000
H       -8.86744000       1.04683000      -2.22342000       0.21985000
H       -7.65700000      -0.45832000      -0.69659000       0.24153000
H       -5.61672000      -3.98202000      -1.64545000       0.21323000
H       -4.38796000      -6.12868000      -1.58842000       0.21660000
H       -2.91258000      -6.66938000       0.34364000       0.21565000
H       -2.66601000      -5.01532000       2.19807000       0.21687000
H       -3.91908000      -2.89397000       2.13915000       0.24214000
H       -3.73796000       4.35791000       1.88082000       0.23034000
H       -2.81967000       3.66883000       3.20525000       0.21801000
H       -2.73993000       2.93421000       1.58748000       0.25833000
H       -6.57974000       1.01608000       6.28662000       0.22195000
H       -6.70417000      -0.49433000       5.34905000       0.25274000
H       -5.13612000       0.07512000       5.88781000       0.22530000
H       -7.88599000       2.33012000       0.14562000       0.22858000
H       -8.59179000       0.96254000       1.00869000       0.25352000
H       -8.84985000       2.61297000       1.59715000       0.22346000
H       -3.76201000       0.79444000      -0.02152000       0.43967000
H       -2.23532000       0.95290000       2.61898000       0.23452000
C       -7.51793000      -3.73266000       1.72606000      -0.23532000
C       -6.72619000      -4.58613000       2.49625000      -0.17385000
C       -8.28070000      -4.20370000       0.65689000      -0.19719000
C       -6.65917000      -5.93452000       2.16387000      -0.17450000
H       -6.14555000      -4.18734000       3.31975000       0.25412000
C       -8.22196000      -5.55396000       0.32192000      -0.18354000
H       -8.89818000      -3.51213000       0.09489000       0.25279000
C       -7.39709000      -6.39042000       1.07195000       0.07298000
H       -6.02911000      -6.62303000       2.71137000       0.25798000
H       -8.78331000      -5.95960000      -0.51021000       0.25511000
H        1.03251000      -0.00451000      -0.17073000       0.23680000
O        0.23010000       2.25466000      -0.30699000      -0.58172000
C       -0.27088000       3.59475000      -0.38090000      -0.03915000
H       -1.01312000       3.66744000      -1.18460000       0.18450000
H       -0.77404000       3.85049000       0.55859000       0.17506000
O        0.21397000      -2.27627000      -0.29770000      -0.58251000
C       -0.25317000      -3.63904000      -0.21556000      -0.04800000
H        0.28338000      -4.17104000      -1.00731000       0.18167000
H       -1.32558000      -3.67696000      -0.41577000       0.21036000
H        0.19976000      -0.94840000       2.58549000       0.25346000
C        2.02173000       0.98122000       2.46935000      -0.15673000
C        0.18748000       2.47784000       2.94597000      -0.18783000
C        2.91527000       2.04207000       2.56543000      -0.20916000
H        2.38364000      -0.01547000       2.23106000       0.22367000
C        1.08148000       3.54144000       3.04267000      -0.21294000
H       -0.86775000       2.65413000       3.10726000       0.21361000
C        2.44881000       3.32997000       2.85023000      -0.19302000
H        3.97725000       1.86789000       2.41739000       0.22312000
H        0.71053000       4.53673000       3.27249000       0.21938000
H        3.14654000       4.15912000       2.92796000       0.22084000
O       -3.62698000      -1.00707000       3.13679000      -0.42861000
C       -8.47169000       0.90864000       3.78092000      -0.61489000
H       -9.03915000       1.84131000       3.91397000       0.22517000
H       -8.99004000       0.30263000       3.03919000       0.25251000
H       -8.48342000       0.36233000       4.71964000       0.23484000
C       -5.43777000       3.06489000       0.31054000      -0.61541000
H       -5.72802000       4.12388000       0.33776000       0.23138000
H       -4.39223000       3.01421000      -0.00001000       0.23390000
H       -6.02564000       2.57179000      -0.46092000       0.24091000
C       -3.60533000       1.77219000       4.88657000      -0.60556000
H       -3.93654000       2.17932000       5.84849000       0.23427000
H       -3.30745000       0.73298000       5.04730000       0.24053000
H       -2.71655000       2.31909000       4.57871000       0.22023000
C        0.06837000      -4.21096000       1.15722000      -0.61911000
H       -0.22855000      -5.26474000       1.20666000       0.20954000
H        1.14245000      -4.14130000       1.36252000       0.20115000
H       -0.47827000      -3.66285000       1.92949000       0.22164000
C        0.92501000       4.49856000      -0.62380000      -0.60339000
H        0.60514000       5.54512000      -0.68359000       0.20701000
H        1.64526000       4.39613000       0.19376000       0.21148000
H        1.42578000       4.23278000      -1.56037000       0.20946000
N       -7.28434000      -7.80757000       0.68396000       0.50379000
O       -7.92979000      -8.18562000      -0.29376000      -0.39128000
O       -6.54713000      -8.52752000       1.35611000      -0.38642000
