131
R3TS20minorsNMe2cNMe2.xyz  (col5 = NBO charge)
O       -2.91753000      -1.91038000      -2.98053000      -0.42664000
N       -1.67467000      -1.57640000      -2.78206000       0.47168000
C       -1.32545000      -0.26176000      -2.64377000      -0.17038000
C       -0.01410000       0.08287000      -2.30877000      -0.07392000
C        0.52455000       1.42751000      -2.50929000      -0.18253000
O       -1.88237000       1.49718000      -0.06695000      -0.70558000
C       -0.69506000       1.25647000       0.15621000       0.79093000
C        0.00379000       0.00112000      -0.00896000      -0.50094000
C       -0.67208000      -1.26399000       0.11221000       0.79547000
O       -1.89576000      -1.44483000       0.05016000      -0.71507000
Ru      -4.69836000      -0.75070000      -2.80669000       0.15625000
S       -5.00245000      -3.89494000      -2.01516000       2.25351000
O       -5.02132000      -3.92256000      -3.49292000      -0.95439000
O       -3.83130000      -4.42008000      -1.28697000      -0.94972000
N       -4.14113000      -0.07466000      -0.88297000      -0.74090000
N       -5.41276000      -2.34144000      -1.54626000      -0.87407000
C       -5.18206000      -0.56081000       0.05904000      -0.01992000
C       -5.16529000      -2.09601000      -0.09936000      -0.06322000
C       -5.04140000      -0.04889000       1.47920000      -0.05052000
C       -6.19191000       0.38066000       2.15429000      -0.20126000
C       -6.12298000       0.82939000       3.47302000      -0.21392000
C       -4.89278000       0.86271000       4.13289000      -0.21629000
C       -3.74120000       0.44009000       3.46553000      -0.20745000
C       -3.81119000      -0.01677000       2.14850000      -0.20543000
C       -6.18856000      -2.71552000       0.84038000      -0.02387000
C       -5.76372000      -3.30469000       2.03515000      -0.20494000
C       -6.68939000      -3.81745000       2.94581000      -0.20808000
C       -8.05547000      -3.75042000       2.66708000      -0.22555000
C       -8.48784000      -3.16563000       1.47327000      -0.21010000
C       -7.55993000      -2.64749000       0.57167000      -0.21637000
C       -4.82065000       1.31062000      -3.80478000       0.00003000
C       -6.05575000       0.97075000      -3.11618000       0.01093000
C       -6.76308000      -0.21900000      -3.46498000       0.01062000
C       -6.26782000      -1.05380000      -4.54107000       0.04832000
C       -4.99487000      -0.80520000      -5.09588000       0.00428000
C       -4.25987000       0.39703000      -4.73305000       0.01454000
C       -4.14247000       2.61775000      -3.44003000      -0.60500000
C       -8.03206000      -0.64580000      -2.76581000      -0.60180000
C       -4.41874000      -1.82378000      -6.05290000      -0.61018000
H       -4.00855000       0.93163000      -0.78945000       0.41471000
H       -6.14698000      -0.21391000      -0.32408000       0.21286000
H       -4.16502000      -2.44234000       0.18994000       0.24517000
H       -7.15370000       0.33918000       1.64823000       0.21276000
H       -7.02730000       1.15161000       3.98282000       0.21507000
H       -4.83271000       1.21516000       5.15949000       0.21450000
H       -2.77922000       0.46353000       3.97129000       0.21581000
H       -2.91483000      -0.34446000       1.63817000       0.24635000
H       -4.69973000      -3.35660000       2.25074000       0.22265000
H       -6.34232000      -4.27186000       3.87032000       0.21485000
H       -8.77882000      -4.15292000       3.37221000       0.21148000
H       -9.54906000      -3.12298000       1.24007000       0.21114000
H       -7.88910000      -2.21938000      -0.36803000       0.21930000
H       -4.87436000       3.43044000      -3.40604000       0.22839000
H       -3.66057000       2.57409000      -2.45547000       0.23038000
H       -3.38300000       2.90511000      -4.16607000       0.22469000
H       -8.91412000      -0.42690000      -3.38119000       0.22612000
H       -7.99936000      -1.71848000      -2.56572000       0.23859000
H       -8.16592000      -0.15279000      -1.80386000       0.21896000
H       -3.38264000      -1.61684000      -6.31253000       0.22471000
H       -4.45256000      -2.81377000      -5.58973000       0.26176000
H       -4.99704000      -1.85262000      -6.98543000       0.22016000
H       -3.22451000      -0.47020000      -0.60845000       0.47225000
H       -2.14778000       0.43095000      -2.66790000       0.22364000
C       -6.40342000      -4.87880000      -1.48078000      -0.31300000
C       -7.63621000      -4.75006000      -2.11979000      -0.17911000
C       -6.29392000      -5.69197000      -0.35443000      -0.16725000
C       -8.75989000      -5.39425000      -1.61867000      -0.27976000
H       -7.72190000      -4.13228000      -3.00677000       0.22424000
C       -7.41103000      -6.34098000       0.15379000      -0.26937000
H       -5.33316000      -5.78555000       0.13852000       0.24330000
C       -8.67978000      -6.19233000      -0.45153000       0.21595000
H       -9.70439000      -5.26186000      -2.13228000       0.21945000
H       -7.29394000      -6.93933000       1.04809000       0.22392000
H        1.06598000       0.00867000       0.20171000       0.24163000
O        0.17665000      -2.30594000       0.22740000      -0.57026000
C       -0.43325000      -3.61903000       0.13127000      -0.05346000
H       -1.02036000      -3.79929000       1.03922000       0.17867000
H       -1.11616000      -3.63739000      -0.72166000       0.22506000
O        0.17317000       2.24660000       0.51487000      -0.57783000
C       -0.37487000       3.57084000       0.60000000      -0.04271000
H       -1.09895000       3.61079000       1.42284000       0.18368000
H       -0.90917000       3.80315000      -0.32587000       0.18707000
C        1.90352000       1.65848000      -2.36490000      -0.13542000
C       -0.27703000       2.54200000      -2.80827000      -0.06366000
C        2.45728000       2.92164000      -2.49965000      -0.27689000
H        2.55402000       0.82306000      -2.11759000       0.21964000
C        0.25813000       3.81498000      -2.94686000      -0.32162000
H       -1.34779000       2.42146000      -2.91494000       0.20310000
C        1.64591000       4.04583000      -2.79087000       0.21446000
H        3.52536000       3.03516000      -2.36181000       0.22427000
H       -0.41405000       4.63543000      -3.16725000       0.21984000
H        0.70144000      -0.73200000      -2.32715000       0.25710000
O       -0.83112000      -2.48757000      -2.79062000      -0.45462000
C       -7.06523000      -2.23224000      -5.04502000      -0.62804000
H       -7.07489000      -2.23582000      -6.14031000       0.22439000
H       -6.60550000      -3.16538000      -4.70775000       0.27318000
H       -8.10186000      -2.20334000      -4.70892000       0.21769000
C       -6.57824000       1.94519000      -2.08201000      -0.59764000
H       -5.79029000       2.28700000      -1.40533000       0.22458000
H       -6.98860000       2.83397000      -2.57854000       0.23102000
H       -7.37060000       1.52398000      -1.46669000       0.22472000
C       -2.92084000       0.63544000      -5.39591000      -0.60243000
H       -2.26473000      -0.22603000      -5.25601000       0.24002000
H       -3.05505000       0.78724000      -6.47403000       0.22942000
H       -2.38851000       1.49589000      -4.99522000       0.22152000
C        0.69793000      -4.61621000      -0.02760000      -0.60217000
H        0.28959000      -5.63087000      -0.08953000       0.21322000
H        1.25377000      -4.41166000      -0.94833000       0.20881000
H        1.39304000      -4.56922000       0.81819000       0.20006000
C        0.79128000       4.51872000       0.81987000      -0.60497000
H        0.43233000       5.55248000       0.88770000       0.20649000
H        1.32418000       4.27481000       1.74484000       0.20860000
H        1.49565000       4.44471000      -0.01445000       0.21044000
N        2.18613000       5.31738000      -2.91611000      -0.49856000
C        1.29108000       6.46338000      -2.93571000      -0.36448000
C        3.56905000       5.54002000      -2.52345000      -0.36542000
H        1.88068000       7.37870000      -3.01439000       0.20923000
H        0.62413000       6.42638000      -3.80517000       0.19920000
H        0.66872000       6.52797000      -2.02869000       0.18887000
H        3.75117000       5.30844000      -1.46175000       0.18982000
H        4.24951000       4.92927000      -3.12759000       0.20199000
H        3.82701000       6.58655000      -2.69670000       0.20837000
N       -9.80753000      -6.80695000       0.08311000      -0.50499000
C       -9.73118000      -7.34001000       1.43566000      -0.36499000
C      -11.11681000      -6.41205000      -0.40792000      -0.36332000
H      -10.70731000      -7.73880000       1.71971000       0.20546000
H       -9.01151000      -8.16486000       1.49137000       0.20071000
H       -9.43466000      -6.57664000       2.17229000       0.19024000
H      -11.31992000      -5.33703000      -0.26623000       0.18372000
H      -11.21888000      -6.63830000      -1.47551000       0.19984000
H      -11.88542000      -6.98032000       0.12016000       0.20679000
