120
R3TS2majorsNMe2.xyz  (col5 = NBO charge)
O       -1.25801000      -2.16302000       3.19856000      -0.46087000
N       -1.84854000      -1.06911000       3.13424000       0.46075000
C       -1.21664000       0.08534000       2.75638000      -0.16675000
C        0.10844000       0.06730000       2.30833000      -0.06180000
C        1.01655000       1.20714000       2.39546000      -0.18415000
O       -1.89405000      -1.50659000       0.07409000      -0.70112000
C       -0.68869000      -1.28170000      -0.03972000       0.79083000
C       -0.02664000      -0.00554000      -0.01866000      -0.50562000
C       -0.70444000       1.25205000      -0.18040000       0.79054000
O       -1.89692000       1.52106000       0.00429000      -0.71942000
Ru      -4.79241000       0.32455000       2.88443000       0.19085000
S       -7.05616000      -1.98820000       3.15969000       2.25832000
O       -6.80998000      -1.83480000       4.60576000      -0.95117000
O       -8.29824000      -1.36929000       2.61283000      -0.98909000
N       -4.05457000      -0.07505000       0.94799000      -0.74055000
N       -5.71136000      -1.49445000       2.36035000      -0.87656000
C       -4.95976000      -0.89809000       0.09252000      -0.02480000
C       -5.57222000      -2.00807000       0.97664000      -0.04715000
C       -5.93832000      -0.00047000      -0.64227000      -0.04007000
C       -5.42929000       0.78416000      -1.69032000      -0.21094000
C       -6.25413000       1.65632000      -2.39798000      -0.21218000
C       -7.61163000       1.74809000      -2.07404000      -0.22134000
C       -8.12678000       0.96365000      -1.04153000      -0.21138000
C       -7.29605000       0.09647000      -0.32392000      -0.22389000
C       -4.76144000      -3.30344000       0.89636000      -0.03104000
C       -5.02306000      -4.20160000      -0.14537000      -0.21487000
C       -4.32693000      -5.40761000      -0.24137000      -0.21727000
C       -3.35905000      -5.73156000       0.71353000      -0.23059000
C       -3.09330000      -4.83591000       1.75119000      -0.20891000
C       -3.78710000      -3.62902000       1.84158000      -0.20671000
C       -4.12960000       2.53203000       3.22274000      -0.01724000
C       -4.02502000       1.82353000       4.44714000       0.04310000
C       -5.17672000       1.13160000       4.99825000      -0.03523000
C       -6.43013000       1.25675000       4.35532000       0.08134000
C       -6.50767000       1.81293000       3.02800000      -0.00832000
C       -5.33870000       2.40281000       2.44469000       0.03491000
C       -3.02109000       3.40136000       2.66745000      -0.62402000
C       -5.05296000       0.34621000       6.28459000      -0.60651000
C       -7.86867000       1.91448000       2.38185000      -0.61577000
H       -3.17711000      -0.60682000       1.01196000       0.45352000
H       -4.32087000      -1.37567000      -0.65879000       0.23850000
H       -6.55556000      -2.23857000       0.54949000       0.22414000
H       -4.37187000       0.71557000      -1.93991000       0.22468000
H       -5.84205000       2.25769000      -3.20407000       0.21843000
H       -8.26124000       2.42200000      -2.62640000       0.21762000
H       -9.17948000       1.03027000      -0.77906000       0.21949000
H       -7.71081000      -0.47869000       0.49716000       0.24552000
H       -5.79442000      -3.96643000      -0.87670000       0.21120000
H       -4.55073000      -6.09820000      -1.05105000       0.21127000
H       -2.82215000      -6.67507000       0.64932000       0.21038000
H       -2.34258000      -5.06974000       2.50162000       0.21473000
H       -3.59226000      -2.94860000       2.65918000       0.25037000
H       -3.44318000       4.34347000       2.30221000       0.22893000
H       -2.28670000       3.66079000       3.42990000       0.21752000
H       -2.50331000       2.93024000       1.82474000       0.25143000
H       -5.32316000       0.95969000       7.15486000       0.21861000
H       -5.70192000      -0.52886000       6.24733000       0.25300000
H       -4.03673000      -0.01935000       6.43163000       0.22634000
H       -7.82560000       2.31419000       1.37213000       0.22618000
H       -8.35577000       0.93835000       2.34342000       0.25630000
H       -8.49925000       2.58516000       2.98081000       0.22119000
H       -3.74341000       0.75219000       0.43763000       0.43533000
H       -1.83905000       0.96044000       2.78178000       0.22532000
C       -7.19207000      -3.74147000       2.80960000      -0.28821000
C       -6.32169000      -4.62574000       3.44846000      -0.17078000
C       -8.09613000      -4.18986000       1.84839000      -0.19346000
C       -6.33741000      -5.96827000       3.08718000      -0.20484000
H       -5.62833000      -4.25341000       4.19440000       0.24302000
C       -8.09866000      -5.53942000       1.49734000      -0.21753000
H       -8.77671000      -3.48423000       1.38400000       0.24082000
C       -7.20605000      -6.44020000       2.09188000      -0.00389000
H       -5.64319000      -6.65721000       3.56127000       0.21991000
H       -8.79210000      -5.89437000       0.73864000       0.21708000
C       -7.13462000      -7.87826000       1.64030000      -0.60812000
H       -6.28622000      -8.01511000       0.95641000       0.22517000
H       -6.98463000      -8.56028000       2.48480000       0.21763000
H       -8.04248000      -8.18433000       1.11019000       0.21321000
H        1.03244000      -0.00655000      -0.23946000       0.24393000
O        0.19167000       2.23681000      -0.49253000      -0.56350000
C       -0.33403000       3.56169000      -0.55259000      -0.22077000
H       -1.18662000       3.62000000      -1.23615000       0.18759000
H       -0.64892000       3.90197000       0.43943000       0.17797000
H        0.48631000       4.18673000      -0.91034000       0.19023000
O        0.21427000      -2.29757000      -0.10894000      -0.57038000
C       -0.33263000      -3.59991000       0.15138000      -0.23068000
H       -1.14535000      -3.83698000      -0.53973000       0.19408000
H        0.49872000      -4.29623000       0.02540000       0.18388000
H       -0.72418000      -3.63694000       1.17091000       0.20130000
H        0.57797000      -0.91122000       2.30347000       0.25446000
C        2.38448000       1.02847000       2.11752000      -0.13736000
C        0.60282000       2.50761000       2.72555000      -0.06849000
C        3.28621000       2.07855000       2.15422000      -0.27583000
H        2.74166000       0.03743000       1.84761000       0.22022000
C        1.48847000       3.57412000       2.76695000      -0.31659000
H       -0.43807000       2.69564000       2.95137000       0.20074000
C        2.86327000       3.39203000       2.48008000       0.22651000
H        4.32495000       1.87757000       1.92266000       0.22499000
H        1.10569000       4.55375000       3.02677000       0.22014000
O       -3.09389000      -1.02157000       3.52806000      -0.46729000
C       -7.71515000       0.87069000       5.04287000      -0.61400000
H       -8.24911000       1.80372000       5.27607000       0.22187000
H       -8.36022000       0.26023000       4.41266000       0.25421000
H       -7.54988000       0.32871000       5.96959000       0.23360000
C       -5.38835000       3.03122000       1.07017000      -0.61343000
H       -5.66981000       4.09018000       1.14873000       0.22887000
H       -4.41985000       2.98100000       0.56850000       0.23070000
H       -6.10889000       2.53524000       0.42357000       0.24059000
C       -2.73803000       1.76599000       5.23935000      -0.60637000
H       -2.90565000       2.13223000       6.25834000       0.23096000
H       -2.38716000       0.73279000       5.30594000       0.24452000
H       -1.93362000       2.35185000       4.79862000       0.21919000
N        3.75543000       4.44687000       2.52453000      -0.49096000
C        3.25705000       5.80118000       2.69456000      -0.36445000
C        5.12638000       4.24983000       2.08226000      -0.36503000
H        4.09724000       6.49765000       2.69382000       0.21029000
H        2.56444000       6.09622000       1.89092000       0.19047000
H        2.73344000       5.91400000       3.65247000       0.19875000
H        5.63179000       3.48880000       2.68970000       0.20062000
H        5.18648000       3.94029000       1.02758000       0.19290000
H        5.67922000       5.18386000       2.19673000       0.20932000
