121
R3TS2majorsOMecNMe2.xyz  (col5 = NBO charge)
O       -0.80220000      -2.07801000       3.07637000      -0.51639000
N       -1.31488000      -0.95162000       3.28610000       0.44082000
C       -0.72885000       0.20262000       2.83455000      -0.19887000
C        0.45179000       0.17511000       2.06747000      -0.11732000
C        1.36315000       1.34205000       2.02528000      -0.10434000
O       -1.90140000      -1.45736000       0.04059000      -0.68172000
C       -0.69135000      -1.27975000      -0.01183000       0.81032000
C        0.00344000       0.00139000       0.00180000      -0.47853000
C       -0.72262000       1.22950000      -0.23868000       0.80991000
O       -1.89882000       1.48549000       0.04772000      -0.70835000
Ru      -5.05164000       0.60936000       2.98028000       0.24891000
S       -7.37651000      -1.57887000       3.33052000       2.25187000
O       -7.24911000      -1.26742000       4.76326000      -0.94035000
O       -8.49770000      -0.96531000       2.57495000      -0.96698000
N       -3.92261000      -0.13496000       1.35387000      -0.77404000
N       -5.91200000      -1.15977000       2.60580000      -0.84865000
C       -4.79043000      -0.93492000       0.44230000      -0.03066000
C       -5.59769000      -1.89142000       1.34302000      -0.05051000
C       -5.58843000      -0.00601000      -0.45413000      -0.03906000
C       -4.88858000       0.65416000      -1.47654000      -0.20401000
C       -5.54557000       1.53423000      -2.33484000      -0.21138000
C       -6.91814000       1.75915000      -2.18948000      -0.22153000
C       -7.62030000       1.10187000      -1.17783000      -0.21537000
C       -6.95966000       0.22797000      -0.30819000      -0.22232000
C       -4.82394000      -3.18963000       1.56111000      -0.03476000
C       -5.07618000      -4.27727000       0.71615000      -0.21604000
C       -4.34671000      -5.46016000       0.84041000      -0.21566000
C       -3.34547000      -5.56490000       1.81030000      -0.22926000
C       -3.08477000      -4.47955000       2.64954000      -0.20303000
C       -3.82370000      -3.30137000       2.53141000      -0.21786000
C       -4.05720000       2.73704000       3.21535000       0.00473000
C       -4.07440000       2.10205000       4.48004000       0.03040000
C       -5.32129000       1.55794000       4.99678000       0.01200000
C       -6.53990000       1.79953000       4.31230000       0.02494000
C       -6.48890000       2.27225000       2.95252000       0.04575000
C       -5.23489000       2.70453000       2.38783000       0.01227000
C       -2.81499000       3.38108000       2.64106000      -0.62495000
C       -5.30838000       0.80144000       6.30514000      -0.61071000
C       -7.79250000       2.38931000       2.19904000      -0.61613000
H       -3.24339000      -0.77749000       1.76735000       0.43546000
H       -4.13175000      -1.53201000      -0.19273000       0.25458000
H       -6.52331000      -2.14616000       0.81457000       0.22785000
H       -3.81933000       0.48589000      -1.57903000       0.23129000
H       -4.98899000       2.04034000      -3.11932000       0.21770000
H       -7.43514000       2.43940000      -2.86134000       0.21740000
H       -8.68651000       1.27310000      -1.05306000       0.21927000
H       -7.51822000      -0.24514000       0.49266000       0.24178000
H       -5.86083000      -4.20447000      -0.03320000       0.21312000
H       -4.56259000      -6.29895000       0.18256000       0.21151000
H       -2.76825000      -6.48206000       1.90286000       0.21159000
H       -2.28978000      -4.52264000       3.38783000       0.22425000
H       -3.60362000      -2.47689000       3.20027000       0.24867000
H       -3.07452000       4.34433000       2.18957000       0.22706000
H       -2.06496000       3.57683000       3.40655000       0.21880000
H       -2.36083000       2.76754000       1.85724000       0.25648000
H       -5.42093000       1.48635000       7.15658000       0.22300000
H       -6.10973000       0.06471000       6.32655000       0.25108000
H       -4.36992000       0.25861000       6.42900000       0.23355000
H       -7.65314000       2.68298000       1.16194000       0.22793000
H       -8.33410000       1.44046000       2.21407000       0.25357000
H       -8.42077000       3.14710000       2.68509000       0.22672000
H       -3.32612000       0.50785000       0.81641000       0.45792000
H       -1.27868000       1.09313000       3.08288000       0.21481000
C       -7.49672000      -3.33691000       3.15183000      -0.35598000
C       -6.69021000      -4.15278000       3.95154000      -0.14976000
C       -8.27538000      -3.89536000       2.13769000      -0.16948000
C       -6.63445000      -5.51473000       3.71527000      -0.26574000
H       -6.08649000      -3.70996000       4.73603000       0.24365000
C       -8.22426000      -5.26173000       1.89752000      -0.28224000
H       -8.90713000      -3.25253000       1.53326000       0.24018000
C       -7.37392000      -6.10321000       2.65826000       0.23536000
H       -5.97742000      -6.11653000       4.32890000       0.22907000
H       -8.82779000      -5.66784000       1.09558000       0.22512000
H        1.01681000      -0.01578000      -0.38130000       0.25037000
O        0.09342000       2.19219000      -0.74401000      -0.55379000
C       -0.47393000       3.50015000      -0.85170000      -0.22198000
H       -1.38118000       3.48695000      -1.46327000       0.18880000
H       -0.71647000       3.89937000       0.13813000       0.18252000
H        0.29636000       4.11481000      -1.31965000       0.19429000
O        0.19040000      -2.30974000      -0.02701000      -0.56511000
C       -0.39976000      -3.59894000       0.21109000      -0.23000000
H       -1.13758000      -3.83995000      -0.55979000       0.18627000
H        0.43006000      -4.30740000       0.18304000       0.18431000
H       -0.88800000      -3.60484000       1.18783000       0.21214000
H        0.94698000      -0.79198000       2.05734000       0.25679000
C        2.69936000       1.15858000       1.64668000      -0.15748000
C        0.94882000       2.65280000       2.32406000      -0.18409000
C        3.59704000       2.22280000       1.56238000      -0.29759000
H        3.04649000       0.15707000       1.40370000       0.22079000
C        1.82564000       3.72453000       2.24299000      -0.25180000
H       -0.07552000       2.84028000       2.62191000       0.21504000
C        3.15917000       3.52007000       1.85763000       0.33576000
H        4.62228000       2.03042000       1.26820000       0.22786000
H        1.50427000       4.73530000       2.47478000       0.22733000
O       -2.40838000      -0.84510000       3.95082000      -0.54808000
C       -7.88903000       1.57037000       4.94761000      -0.60486000
H       -8.38549000       2.54615000       5.04257000       0.21993000
H       -8.52888000       0.92162000       4.34952000       0.24784000
H       -7.81224000       1.13084000       5.93900000       0.23118000
C       -5.14223000       3.21141000       0.96639000      -0.61278000
H       -5.27260000       4.30236000       0.94242000       0.22535000
H       -4.17447000       2.97455000       0.52094000       0.23850000
H       -5.89796000       2.76457000       0.32379000       0.23764000
C       -2.83544000       1.95108000       5.33156000      -0.61902000
H       -3.04819000       2.22893000       6.36869000       0.22413000
H       -2.49537000       0.91080000       5.30247000       0.26875000
H       -2.00956000       2.57185000       4.98645000       0.21714000
O        3.93880000       4.63844000       1.80534000      -0.54937000
C        5.29713000       4.49188000       1.42209000      -0.22045000
H        5.38910000       4.08187000       0.40691000       0.17822000
H        5.72580000       5.49568000       1.44542000       0.19827000
H        5.84735000       3.84678000       2.12079000       0.17852000
N       -7.25937000      -7.45142000       2.37828000      -0.49458000
C       -7.86456000      -7.97812000       1.16552000      -0.36435000
C       -6.17966000      -8.21190000       2.99537000      -0.36678000
H       -7.67476000      -9.05129000       1.10589000       0.20884000
H       -8.95162000      -7.83635000       1.17505000       0.20096000
H       -7.46437000      -7.50297000       0.25566000       0.18963000
H       -5.19426000      -7.77266000       2.78257000       0.19851000
H       -6.30711000      -8.26552000       4.08318000       0.20037000
H       -6.19739000      -9.23374000       2.61215000       0.20732000
