125
R3TS20majorsNMe2cNO2.xyz  (col5 = NBO charge)
O       -1.37710000      -2.09171000       3.32701000      -0.45482000
N       -1.96646000      -1.00966000       3.16172000       0.46485000
C       -1.31827000       0.12767000       2.75982000      -0.16548000
C        0.02418000       0.09513000       2.37464000      -0.05023000
C        0.92203000       1.24003000       2.45025000      -0.18981000
O       -1.88712000      -1.52485000       0.10230000      -0.70932000
C       -0.69154000      -1.28497000      -0.07701000       0.79125000
C       -0.03660000      -0.00670000      -0.00754000      -0.51317000
C       -0.69892000       1.25799000      -0.16084000       0.78944000
O       -1.89655000       1.53780000      -0.01731000      -0.72942000
Ru      -4.87976000       0.36773000       2.73974000       0.18948000
S       -7.13652000      -1.96127000       2.93173000       2.25890000
O       -6.96161000      -1.79141000       4.38510000      -0.94380000
O       -8.37387000      -1.39807000       2.32235000      -0.98243000
N       -4.06223000      -0.04939000       0.84209000      -0.74445000
N       -5.77685000      -1.46472000       2.18209000      -0.88216000
C       -4.92933000      -0.87227000      -0.05233000      -0.02466000
C       -5.58048000      -1.98158000       0.80428000      -0.04634000
C       -5.87266000       0.02190000      -0.83536000      -0.04093000
C       -5.31423000       0.80758000      -1.85717000      -0.20978000
C       -6.10613000       1.67432000      -2.60760000      -0.21082000
C       -7.47898000       1.75980000      -2.35403000      -0.22023000
C       -8.04277000       0.97459000      -1.34797000      -0.21108000
C       -7.24519000       0.11287000      -0.58743000      -0.22378000
C       -4.76448000      -3.27434000       0.76706000      -0.03630000
C       -5.02342000      -4.21367000      -0.23815000      -0.21810000
C       -4.32599000      -5.42252000      -0.28321000      -0.21701000
C       -3.35623000      -5.70403000       0.68277000      -0.22650000
C       -3.08854000      -4.76457000       1.68108000      -0.21499000
C       -3.78718000      -3.55838000       1.72335000      -0.20509000
C       -4.24995000       2.57883000       3.07941000      -0.01517000
C       -4.19749000       1.88408000       4.31619000       0.04493000
C       -5.37047000       1.19805000       4.82661000      -0.03496000
C       -6.59248000       1.30510000       4.12309000       0.08187000
C       -6.61414000       1.84909000       2.78828000      -0.01029000
C       -5.42543000       2.44188000       2.25231000       0.03724000
C       -3.11946000       3.44449000       2.56402000      -0.62446000
C       -5.30482000       0.43435000       6.13037000      -0.60616000
C       -7.94587000       1.93071000       2.08094000      -0.61434000
H       -3.19007000      -0.58584000       0.94604000       0.45626000
H       -4.25650000      -1.35284000      -0.77139000       0.23980000
H       -6.54597000      -2.21230000       0.33758000       0.22300000
H       -4.24510000       0.74452000      -2.05204000       0.22535000
H       -5.65627000       2.27630000      -3.39265000       0.21918000
H       -8.10269000       2.42909000      -2.94063000       0.21831000
H       -9.10800000       1.03584000      -1.14068000       0.21973000
H       -7.69913000      -0.46396000       0.21137000       0.24217000
H       -5.79555000      -4.01104000      -0.97838000       0.21261000
H       -4.55355000      -6.14970000      -1.05851000       0.21592000
H       -2.82293000      -6.65096000       0.66055000       0.21498000
H       -2.33672000      -4.96482000       2.43840000       0.21749000
H       -3.60194000      -2.85255000       2.52067000       0.24746000
H       -3.52646000       4.38266000       2.17269000       0.22938000
H       -2.41797000       3.71215000       3.35392000       0.21799000
H       -2.56634000       2.96636000       1.74831000       0.25272000
H       -5.63494000       1.05634000       6.97332000       0.21999000
H       -5.93605000      -0.45257000       6.07266000       0.25145000
H       -4.29288000       0.08970000       6.34197000       0.22673000
H       -7.86272000       2.32727000       1.07267000       0.22734000
H       -8.41970000       0.94882000       2.02377000       0.25322000
H       -8.61191000       2.59465000       2.64782000       0.22233000
H       -3.72180000       0.77360000       0.34288000       0.43867000
H       -1.94227000       1.00108000       2.71100000       0.22762000
C       -7.21630000      -3.73567000       2.61247000      -0.23389000
C       -6.31598000      -4.57346000       3.27296000      -0.17420000
C       -8.11562000      -4.22604000       1.66509000      -0.19813000
C       -6.28183000      -5.92480000       2.94808000      -0.17480000
H       -5.62950000      -4.15931000       4.00205000       0.25492000
C       -8.09049000      -5.57949000       1.33892000      -0.18395000
H       -8.81219000      -3.54604000       1.18778000       0.25234000
C       -7.16044000      -6.40014000       1.97483000       0.07174000
H       -5.57371000      -6.60099000       3.40862000       0.25769000
H       -8.75818000      -5.99952000       0.59738000       0.25436000
H        1.02541000      -0.00505000      -0.21396000       0.24084000
O        0.21798000       2.23693000      -0.42217000      -0.57694000
C       -0.26910000       3.58366000      -0.47939000      -0.04060000
H       -1.06075000       3.65811000      -1.23373000       0.18624000
H       -0.70436000       3.85499000       0.48893000       0.17783000
O        0.21603000      -2.27208000      -0.31640000      -0.58025000
C       -0.23201000      -3.64189000      -0.21466000      -0.04878000
H        0.21183000      -4.15636000      -1.07287000       0.18134000
H       -1.31991000      -3.68105000      -0.29120000       0.21283000
H        0.49229000      -0.88374000       2.39646000       0.25378000
C        2.28765000       1.08050000       2.14696000      -0.13116000
C        0.49664000       2.53466000       2.79098000      -0.05890000
C        3.17132000       2.14528000       2.15286000      -0.27654000
H        2.65415000       0.09392000       1.87387000       0.22080000
C        1.36460000       3.61549000       2.80476000      -0.32293000
H       -0.53980000       2.70524000       3.04918000       0.20166000
C        2.73229000       3.45597000       2.47207000       0.22517000
H        4.20707000       1.96065000       1.89613000       0.22562000
H        0.97350000       4.58972000       3.07177000       0.22084000
O       -3.23505000      -0.95810000       3.47386000      -0.46186000
C       -7.90484000       0.91298000       4.75359000      -0.61400000
H       -8.45556000       1.84283000       4.95807000       0.22382000
H       -8.51773000       0.29598000       4.09798000       0.25201000
H       -7.77868000       0.37611000       5.68927000       0.23425000
C       -5.41564000       3.06332000       0.87378000      -0.61380000
H       -5.68460000       4.12640000       0.93901000       0.22958000
H       -4.42944000       2.99824000       0.40978000       0.23227000
H       -6.11801000       2.57653000       0.20095000       0.24039000
C       -2.94497000       1.83893000       5.16241000      -0.60621000
H       -3.15339000       2.22789000       6.16531000       0.23184000
H       -2.60106000       0.80664000       5.26631000       0.24389000
H       -2.12106000       2.41276000       4.74324000       0.21987000
C        0.25015000      -4.22935000       1.10306000      -0.61950000
H       -0.04203000      -5.28316000       1.17540000       0.20947000
H        1.34117000      -4.16361000       1.18022000       0.20118000
H       -0.19900000      -3.68676000       1.93958000       0.22542000
C        0.92156000       4.46697000      -0.80936000      -0.60430000
H        0.61370000       5.51796000      -0.85628000       0.20713000
H        1.69297000       4.35873000      -0.04063000       0.21127000
H        1.35512000       4.18765000      -1.77513000       0.20991000
N        3.60032000       4.53009000       2.46054000      -0.48964000
C        4.96227000       4.35225000       1.98196000      -0.36500000
C        3.07828000       5.87704000       2.62401000      -0.36465000
H        5.49509000       5.30194000       2.05252000       0.20987000
H        5.50421000       3.62101000       2.59435000       0.20093000
H        4.99612000       4.01450000       0.93513000       0.19427000
H        2.34334000       6.13500000       1.84616000       0.19188000
H        2.59720000       6.00111000       3.60258000       0.19896000
H        3.90075000       6.59183000       2.56703000       0.21105000
N       -7.08838000      -7.82007000       1.58951000       0.50377000
O       -7.85927000      -8.21546000       0.71457000      -0.39255000
O       -6.25817000      -8.52669000       2.16005000      -0.38718000
