125
R3TS20minorsNO2cNMe2.xyz  (col5 = NBO charge)
O       -3.14419000      -1.96309000      -2.79722000      -0.39408000
N       -1.89490000      -1.65568000      -2.72722000       0.48897000
C       -1.51623000      -0.32763000      -2.62639000      -0.14915000
C       -0.19374000       0.00027000      -2.40903000      -0.10003000
C        0.33623000       1.35574000      -2.58362000      -0.04703000
O       -1.88485000       1.49235000      -0.05982000      -0.70773000
C       -0.69136000       1.25877000       0.14248000       0.78087000
C        0.00224000      -0.00070000       0.00348000      -0.50372000
C       -0.67088000      -1.26283000       0.10701000       0.78548000
O       -1.89662000      -1.44163000       0.04953000      -0.71849000
Ru      -4.91741000      -0.78360000      -2.49846000       0.15280000
S       -5.15981000      -3.90915000      -1.63454000       2.25165000
O       -5.30371000      -3.95360000      -3.10523000      -0.95479000
O       -3.92570000      -4.41834000      -1.00563000      -0.94956000
N       -4.21451000      -0.06441000      -0.64019000      -0.74116000
N       -5.52761000      -2.34623000      -1.15555000      -0.87324000
C       -5.16414000      -0.54260000       0.39878000      -0.01978000
C       -5.15695000      -2.07886000       0.26102000      -0.06350000
C       -4.88961000      -0.01122000       1.79143000      -0.05173000
C       -5.96354000       0.46704000       2.55341000      -0.20077000
C       -5.76646000       0.93734000       3.85176000      -0.21238000
C       -4.48347000       0.94227000       4.40258000      -0.21431000
C       -3.40727000       0.46940000       3.64840000      -0.20656000
C       -3.60581000      -0.00833000       2.35240000      -0.20519000
C       -6.09390000      -2.68532000       1.29458000      -0.02507000
C       -5.56568000      -3.25847000       2.45541000      -0.20498000
C       -6.40784000      -3.75894000       3.45004000      -0.20749000
C       -7.79305000      -3.69564000       3.29031000      -0.22428000
C       -8.32858000      -3.12675000       2.13118000      -0.20916000
C       -7.48346000      -2.62040000       1.14542000      -0.21623000
C       -5.11347000       1.25749000      -3.53058000       0.00074000
C       -6.28330000       0.93718000      -2.72893000       0.01612000
C       -7.02297000      -0.25720000      -2.98901000       0.01438000
C       -6.63261000      -1.11231000      -4.09178000       0.05192000
C       -5.41110000      -0.88381000      -4.75839000       0.00425000
C       -4.63925000       0.31853000      -4.48121000       0.01407000
C       -4.40140000       2.56895000      -3.25682000      -0.60569000
C       -8.22757000      -0.66117000      -2.17257000      -0.60229000
C       -4.92901000      -1.92112000      -5.74675000      -0.61103000
H       -4.09252000       0.94559000      -0.57829000       0.41419000
H       -6.16082000      -0.20134000       0.10172000       0.21348000
H       -4.13481000      -2.42050000       0.46739000       0.24473000
H       -6.96633000       0.44885000       2.13265000       0.21281000
H       -6.61250000       1.29861000       4.43053000       0.21596000
H       -4.32388000       1.31155000       5.41233000       0.21561000
H       -2.40516000       0.46996000       4.06952000       0.21676000
H       -2.76763000      -0.37571000       1.77471000       0.24251000
H       -4.48694000      -3.30800000       2.57834000       0.22166000
H       -5.98110000      -4.20089000       4.34674000       0.21541000
H       -8.45170000      -4.08858000       4.06105000       0.21216000
H       -9.40607000      -3.08695000       1.99105000       0.21170000
H       -7.89428000      -2.20470000       0.23261000       0.21907000
H       -5.12483000       3.38490000      -3.16980000       0.23171000
H       -3.82927000       2.54317000      -2.32094000       0.23027000
H       -3.71531000       2.84112000      -4.05818000       0.22452000
H       -9.15850000      -0.43978000      -2.70994000       0.22779000
H       -8.18771000      -1.73136000      -1.96138000       0.23921000
H       -8.26964000      -0.15413000      -1.20963000       0.21990000
H       -3.91810000      -1.72835000      -6.10015000       0.22418000
H       -4.93209000      -2.90479000      -5.26922000       0.26172000
H       -5.58678000      -1.95607000      -6.62462000       0.22265000
H       -3.27227000      -0.44176000      -0.43691000       0.47273000
H       -2.33720000       0.36663000      -2.58970000       0.23026000
C       -6.50524000      -4.88437000      -0.96644000      -0.31622000
C       -7.78955000      -4.76493000      -1.49716000      -0.17816000
C       -6.29576000      -5.68038000       0.15833000      -0.16588000
C       -8.86359000      -5.40264000      -0.89089000      -0.27978000
H       -7.95396000      -4.16025000      -2.38207000       0.22411000
C       -7.36268000      -6.32265000       0.77117000      -0.26951000
H       -5.29554000      -5.76641000       0.56686000       0.24329000
C       -8.68014000      -6.18396000       0.27648000       0.21820000
H       -9.84955000      -5.27909000      -1.32204000       0.22012000
H       -7.16690000      -6.90852000       1.65991000       0.22453000
H        1.07196000       0.00687000       0.16960000       0.24012000
O        0.17517000      -2.31017000       0.19956000      -0.57137000
C       -0.44671000      -3.62020000       0.14179000      -0.05221000
H       -1.04810000      -3.76280000       1.04673000       0.18168000
H       -1.12285000      -3.66201000      -0.71611000       0.21939000
O        0.18479000       2.25587000       0.45672000      -0.58069000
C       -0.36863000       3.57767000       0.57927000      -0.04216000
H       -1.08741000       3.59058000       1.40714000       0.18708000
H       -0.91464000       3.82896000      -0.33518000       0.18294000
C        1.72090000       1.57742000      -2.45272000      -0.16137000
C       -0.49408000       2.45766000      -2.86526000      -0.19173000
C        2.26070000       2.84983000      -2.56976000      -0.18036000
H        2.37163000       0.73750000      -2.22808000       0.23303000
C        0.03116000       3.73667000      -2.99382000      -0.18544000
H       -1.56130000       2.31814000      -2.97087000       0.22517000
C        1.40380000       3.92036000      -2.83403000       0.05668000
H        3.32178000       3.03063000      -2.45224000       0.25499000
H       -0.60039000       4.59136000      -3.20246000       0.25215000
H        0.52139000      -0.81412000      -2.43828000       0.26190000
O       -1.05891000      -2.56185000      -2.82104000      -0.41781000
C       -7.47944000      -2.29163000      -4.50311000      -0.62868000
H       -7.58346000      -2.31469000      -5.59314000       0.22582000
H       -6.99918000      -3.22274000      -4.18960000       0.27331000
H       -8.48276000      -2.24713000      -4.07937000       0.21907000
C       -6.71325000       1.93580000      -1.67571000      -0.59866000
H       -5.86853000       2.30239000      -1.08643000       0.22464000
H       -7.17628000       2.80725000      -2.15616000       0.23359000
H       -7.44051000       1.52710000      -0.97734000       0.22593000
C       -3.35930000       0.53304000      -5.25895000      -0.60129000
H       -2.70086000      -0.33301000      -5.16432000       0.23672000
H       -3.58229000       0.67014000      -6.32405000       0.23320000
H       -2.78980000       1.39608000      -4.91957000       0.21979000
C        0.67536000      -4.63413000       0.03329000      -0.60230000
H        0.25603000      -5.64548000      -0.00067000       0.21452000
H        1.25031000      -4.46890000      -0.88374000       0.20732000
H        1.35685000      -4.56615000       0.88837000       0.20225000
C        0.79294000       4.52575000       0.81871000      -0.60289000
H        0.42942000       5.55555000       0.90540000       0.21256000
H        1.32365000       4.26490000       1.74005000       0.21052000
H        1.50597000       4.47822000      -0.01024000       0.20535000
N        1.95683000       5.27614000      -2.92873000       0.50106000
O        1.18634000       6.19041000      -3.22692000      -0.39518000
O        3.15766000       5.42178000      -2.69619000      -0.39032000
N       -9.75414000      -6.79076000       0.91542000      -0.50313000
C       -9.55887000      -7.31860000       2.25803000      -0.36501000
C      -11.10385000      -6.41932000       0.52583000      -0.36330000
H      -10.50673000      -7.71269000       2.63009000       0.20622000
H       -8.83897000      -8.14526000       2.25364000       0.20077000
H       -9.19641000      -6.55237000       2.96117000       0.19078000
H      -11.30568000      -5.34349000       0.66113000       0.18435000
H      -11.29142000      -6.67014000      -0.52464000       0.19996000
H      -11.81992000      -6.98213000       1.12807000       0.20749000
