126
R3TS20minorsNMe2.xyz  (col5 = NBO charge)
O       -2.93833000      -1.89634000      -2.97062000      -0.42837000
N       -1.69205000      -1.56974000      -2.77746000       0.47175000
C       -1.33475000      -0.25749000      -2.63975000      -0.16934000
C       -0.01974000       0.07967000      -2.31166000      -0.07293000
C        0.52698000       1.42029000      -2.51410000      -0.18327000
O       -1.88251000       1.49772000      -0.06591000      -0.70661000
C       -0.69448000       1.25703000       0.15468000       0.79094000
C        0.00329000       0.00095000      -0.00827000      -0.50113000
C       -0.67207000      -1.26393000       0.11272000       0.79521000
O       -1.89570000      -1.44581000       0.04946000      -0.71608000
Ru      -4.71261000      -0.72897000      -2.78629000       0.15723000
S       -5.03400000      -3.87947000      -2.02228000       2.25098000
O       -5.05208000      -3.89845000      -3.49945000      -0.95125000
O       -3.87834000      -4.43646000      -1.29446000      -0.94684000
N       -4.14813000      -0.06980000      -0.85820000      -0.74114000
N       -5.42347000      -2.33137000      -1.53644000      -0.87568000
C       -5.18136000      -0.56890000       0.08589000      -0.01998000
C       -5.15856000      -2.10121000      -0.08919000      -0.06279000
C       -5.03286000      -0.07326000       1.51105000      -0.05129000
C       -6.18241000       0.33265000       2.20241000      -0.20124000
C       -6.10643000       0.76647000       3.52569000      -0.21355000
C       -4.87031000       0.80863000       4.17395000      -0.21577000
C       -3.71986000       0.40968000       3.49043000      -0.20709000
C       -3.79670000      -0.03244000       2.16871000      -0.20578000
C       -6.16588000      -2.74732000       0.84701000      -0.02792000
C       -5.72181000      -3.39586000       2.00291000      -0.20436000
C       -6.63349000      -3.95690000       2.89914000      -0.20788000
C       -8.00363000      -3.87722000       2.64477000      -0.22199000
C       -8.45527000      -3.22719000       1.49252000      -0.20945000
C       -7.54141000      -2.66280000       0.60476000      -0.21700000
C       -4.82727000       1.34132000      -3.76429000       0.00062000
C       -6.06110000       1.00283000      -3.07298000       0.01211000
C       -6.77708000      -0.17976000      -3.42861000       0.01046000
C       -6.29160000      -1.00744000      -4.51507000       0.04838000
C       -5.02099000      -0.76041000      -5.07591000       0.00450000
C       -4.27619000       0.43247000      -4.70336000       0.01582000
C       -4.13853000       2.64108000      -3.39250000      -0.60567000
C       -8.04514000      -0.60544000      -2.72671000      -0.60190000
C       -4.45760000      -1.77205000      -6.04785000      -0.61036000
H       -4.01913000       0.93614000      -0.75696000       0.41487000
H       -6.14990000      -0.22079000      -0.28698000       0.21298000
H       -4.15268000      -2.44493000       0.18207000       0.24607000
H       -7.14850000       0.28501000       1.70522000       0.21285000
H       -7.00989000       1.07045000       4.04801000       0.21541000
H       -4.80490000       1.14960000       5.20406000       0.21478000
H       -2.75333000       0.44005000       3.98704000       0.21600000
H       -2.90098000      -0.34195000       1.64623000       0.24610000
H       -4.65428000      -3.46144000       2.19615000       0.22299000
H       -6.27252000      -4.46114000       3.79189000       0.21553000
H       -8.71529000      -4.32115000       3.33628000       0.21312000
H       -9.52006000      -3.17098000       1.28029000       0.21246000
H       -7.88574000      -2.18497000      -0.30561000       0.21838000
H       -4.86639000       3.45612000      -3.33785000       0.22870000
H       -3.64197000       2.58312000      -2.41594000       0.23102000
H       -3.38912000       2.93439000      -4.12666000       0.22496000
H       -8.92777000      -0.38880000      -3.34188000       0.22675000
H       -8.01209000      -1.67760000      -2.52331000       0.23852000
H       -8.17915000      -0.10920000      -1.76652000       0.21892000
H       -3.43165000      -1.55269000      -6.33594000       0.22467000
H       -4.46835000      -2.76263000      -5.58418000       0.26181000
H       -5.06019000      -1.80869000      -6.96431000       0.22065000
H       -3.22809000      -0.46391000      -0.59301000       0.47261000
H       -2.15324000       0.43985000      -2.65812000       0.22401000
C       -6.46114000      -4.85928000      -1.50737000      -0.26341000
C       -7.67859000      -4.71013000      -2.17072000      -0.20029000
C       -6.35068000      -5.71646000      -0.41422000      -0.18642000
C       -8.79906000      -5.39897000      -1.71145000      -0.21877000
H       -7.74677000      -4.06153000      -3.03620000       0.22612000
C       -7.47873000      -6.39822000       0.03642000      -0.20645000
H       -5.39352000      -5.82105000       0.08292000       0.24536000
C       -8.72065000      -6.23921000      -0.59197000      -0.01682000
H       -9.75061000      -5.27966000      -2.22513000       0.21395000
H       -7.39713000      -7.05060000       0.90241000       0.21807000
C       -9.94844000      -6.92769000      -0.04571000      -0.60640000
H      -10.33343000      -6.39074000       0.83191000       0.22025000
H      -10.75378000      -6.97028000      -0.78660000       0.21271000
H       -9.72669000      -7.95196000       0.27479000       0.21828000
H        1.06595000       0.00850000       0.19979000       0.24184000
O        0.17733000      -2.30544000       0.22898000      -0.57015000
C       -0.43178000      -3.61860000       0.13460000      -0.05309000
H       -1.03109000      -3.79247000       1.03575000       0.17914000
H       -1.10330000      -3.64174000      -0.72740000       0.22342000
O        0.17517000       2.24746000       0.50793000      -0.57749000
C       -0.37128000       3.57247000       0.59245000      -0.04259000
H       -1.09190000       3.61481000       1.41817000       0.18380000
H       -0.90905000       3.80338000      -0.33176000       0.18685000
C        1.90850000       1.64117000      -2.37735000      -0.13511000
C       -0.26820000       2.54078000      -2.80802000      -0.06349000
C        2.47063000       2.90018000      -2.51516000      -0.27679000
H        2.55435000       0.80095000      -2.13414000       0.21973000
C        0.27531000       3.80974000      -2.94969000      -0.32163000
H       -1.34049000       2.42816000      -2.90751000       0.20287000
C        1.66581000       4.03035000      -2.80200000       0.21505000
H        3.54028000       3.00597000      -2.38354000       0.22439000
H       -0.39208000       4.63518000      -3.16591000       0.21990000
H        0.69053000      -0.73981000      -2.33109000       0.25714000
O       -0.85449000      -2.48621000      -2.79081000      -0.45431000
C       -7.09804000      -2.17502000      -5.02951000      -0.62770000
H       -7.14051000      -2.14414000      -6.12389000       0.22510000
H       -6.62506000      -3.11581000      -4.73556000       0.27188000
H       -8.12429000      -2.16327000      -4.66269000       0.21826000
C       -6.57140000       1.96996000      -2.02596000      -0.59772000
H       -5.77508000       2.30890000      -1.35787000       0.22445000
H       -6.98964000       2.86105000      -2.51164000       0.23167000
H       -7.35452000       1.54379000      -1.40234000       0.22488000
C       -2.93887000       0.66967000      -5.37000000      -0.60300000
H       -2.29003000      -0.20002000      -5.24849000       0.24032000
H       -3.07821000       0.84111000      -6.44454000       0.22984000
H       -2.39643000       1.51836000      -4.95819000       0.22190000
C        0.70067000      -4.61769000      -0.00213000      -0.60219000
H        0.29257000      -5.63251000      -0.06282000       0.21323000
H        1.27006000      -4.41999000      -0.91607000       0.20863000
H        1.38368000      -4.56542000       0.85309000       0.20059000
C        0.79686000       4.51940000       0.80545000      -0.60504000
H        0.43947000       5.55375000       0.87223000       0.20659000
H        1.33306000       4.27700000       1.72888000       0.20874000
H        1.49778000       4.44238000      -0.03148000       0.21058000
N        2.21449000       5.29737000      -2.93070000      -0.49797000
C        1.32846000       6.45035000      -2.95070000      -0.36448000
C        3.60264000       5.50988000      -2.55092000      -0.36541000
H        1.92497000       7.36077000      -3.03337000       0.20941000
H        0.65849000       6.41641000      -3.81800000       0.19916000
H        0.70960000       6.52209000      -2.04189000       0.18909000
H        3.79261000       5.27687000      -1.49099000       0.19009000
H        4.27308000       4.89419000      -3.16129000       0.20199000
H        3.86658000       6.55451000      -2.72634000       0.20854000
