125
R3TS20majorsNO2cNMe2.xyz  (col5 = NBO charge)
O       -0.75997000      -2.01392000       3.15001000      -0.49612000
N       -1.23134000      -0.87866000       3.39127000       0.44912000
C       -0.63265000       0.26700000       2.90795000      -0.19658000
C        0.50604000       0.20435000       2.09923000      -0.13340000
C        1.40371000       1.36972000       1.94503000      -0.02019000
O       -1.90327000      -1.44433000       0.01203000      -0.68351000
C       -0.69003000      -1.27819000       0.02921000       0.80988000
C        0.00589000       0.00210000      -0.01650000      -0.48040000
C       -0.72598000       1.22600000      -0.25066000       0.80160000
O       -1.89735000       1.47368000       0.06552000      -0.70920000
Ru      -5.03802000       0.67024000       3.03134000       0.24533000
S       -7.35589000      -1.50661000       3.48911000       2.25083000
O       -7.23211000      -1.12629000       4.90499000      -0.93959000
O       -8.47189000      -0.93116000       2.69866000      -0.96387000
N       -3.88345000      -0.15739000       1.45508000      -0.77270000
N       -5.88755000      -1.11196000       2.74709000      -0.84236000
C       -4.75286000      -1.00170000       0.58242000      -0.03191000
C       -5.55913000      -1.91087000       1.53014000      -0.05211000
C       -5.54740000      -0.11674000      -0.35982000      -0.04097000
C       -4.84235000       0.48998000      -1.41148000      -0.20330000
C       -5.49507000       1.32872000      -2.31323000      -0.21084000
C       -6.86752000       1.56369000      -2.18281000      -0.22081000
C       -7.57468000       0.95762000      -1.14302000      -0.21537000
C       -6.91863000       0.12596000      -0.22958000      -0.22241000
C       -4.77272000      -3.18638000       1.82489000      -0.03438000
C       -4.99528000      -4.31795000       1.03059000      -0.21498000
C       -4.24541000      -5.47913000       1.21938000      -0.21276000
C       -3.25167000      -5.51813000       2.20200000      -0.22974000
C       -3.01997000      -4.38957000       2.99108000      -0.20158000
C       -3.78218000      -3.23386000       2.81035000      -0.22250000
C       -4.03272000       2.80374000       3.18042000       0.00628000
C       -4.06372000       2.22607000       4.47225000       0.02806000
C       -5.31639000       1.70872000       5.00084000       0.01531000
C       -6.52874000       1.92453000       4.29551000       0.02334000
C       -6.46373000       2.34157000       2.91859000       0.04921000
C       -5.20331000       2.74213000       2.34505000       0.01090000
C       -2.78046000       3.41193000       2.58928000      -0.62622000
C       -5.31766000       1.01428000       6.34306000      -0.61147000
C       -7.75967000       2.42600000       2.14806000      -0.61620000
H       -3.20546000      -0.77961000       1.89997000       0.42647000
H       -4.09596000      -1.63020000      -0.02202000       0.25760000
H       -6.47905000      -2.20255000       1.01124000       0.22979000
H       -3.77404000       0.31093000      -1.50311000       0.23372000
H       -4.93530000       1.79436000      -3.12008000       0.21806000
H       -7.38086000       2.21157000      -2.88854000       0.21770000
H       -8.64104000       1.13630000      -1.03096000       0.21939000
H       -7.48100000      -0.30770000       0.59070000       0.24118000
H       -5.77083000      -4.29502000       0.26891000       0.21452000
H       -4.43746000      -6.35188000       0.59969000       0.21270000
H       -2.65694000      -6.41768000       2.34259000       0.21251000
H       -2.22836000      -4.38141000       3.73371000       0.22505000
H       -3.58856000      -2.37520000       3.44276000       0.24492000
H       -3.02826000       4.35261000       2.08689000       0.22814000
H       -2.03792000       3.64220000       3.35284000       0.21694000
H       -2.32391000       2.75698000       1.84154000       0.25770000
H       -5.43720000       1.73935000       7.15951000       0.22412000
H       -6.12040000       0.28071000       6.39186000       0.25217000
H       -4.38134000       0.47692000       6.50246000       0.23246000
H       -7.61024000       2.67324000       1.10039000       0.22902000
H       -8.30260000       1.47910000       2.20029000       0.25284000
H       -8.39173000       3.20464000       2.59443000       0.22789000
H       -3.29186000       0.46254000       0.88533000       0.45961000
H       -1.15275000       1.16904000       3.17946000       0.21856000
C       -7.46467000      -3.27070000       3.39146000      -0.35863000
C       -6.66414000      -4.04400000       4.23855000      -0.14999000
C       -8.22339000      -3.87997000       2.39094000      -0.16880000
C       -6.59343000      -5.41426000       4.06295000      -0.26631000
H       -6.07802000      -3.56239000       5.01351000       0.24317000
C       -8.15733000      -5.25467000       2.21158000      -0.28189000
H       -8.85185000      -3.27015000       1.74994000       0.24056000
C       -7.31111000      -6.05487000       3.02081000       0.23693000
H       -5.94331000      -5.98356000       4.71387000       0.22927000
H       -8.74606000      -5.70097000       1.42013000       0.22576000
H        1.01677000      -0.02444000      -0.40485000       0.24843000
O        0.07389000       2.18856000      -0.77773000      -0.56856000
C       -0.49814000       3.50296000      -0.91150000      -0.04293000
H       -1.37606000       3.44812000      -1.56496000       0.19005000
H       -0.83878000       3.84903000       0.07074000       0.18054000
O        0.18690000      -2.30204000       0.15355000      -0.57736000
C       -0.39077000      -3.59340000       0.45865000      -0.05070000
H       -0.70607000      -4.06317000      -0.48083000       0.17897000
H       -1.27156000      -3.44935000       1.08511000       0.21715000
H        0.98937000      -0.76703000       2.06264000       0.26245000
C        2.72287000       1.16327000       1.50038000      -0.18182000
C        0.98237000       2.68904000       2.19008000      -0.20293000
C        3.58658000       2.22805000       1.28097000      -0.17700000
H        3.06322000       0.14972000       1.30738000       0.23187000
C        1.82835000       3.76712000       1.96614000      -0.18025000
H       -0.02420000       2.87975000       2.53910000       0.22518000
C        3.12148000       3.52453000       1.50364000       0.05772000
H        4.60058000       2.07622000       0.93226000       0.25343000
H        1.50374000       4.78681000       2.13272000       0.25094000
O       -2.28226000      -0.74025000       4.10046000      -0.52366000
C       -7.88415000       1.72423000       4.92734000      -0.60525000
H       -8.38293000       2.70226000       4.97125000       0.22075000
H       -8.51716000       1.04699000       4.35385000       0.24797000
H       -7.81702000       1.33202000       5.93902000       0.23153000
C       -5.09679000       3.18102000       0.90198000      -0.61432000
H       -5.23177000       4.26883000       0.82414000       0.22579000
H       -4.12387000       2.92684000       0.47781000       0.24042000
H       -5.84440000       2.69992000       0.27442000       0.23822000
C       -2.83398000       2.11750000       5.34417000      -0.61783000
H       -3.06169000       2.43345000       6.36692000       0.22543000
H       -2.48107000       1.08172000       5.36194000       0.26641000
H       -2.01064000       2.73492000       4.98661000       0.21579000
C        0.66905000      -4.40238000       1.18075000      -0.60493000
H        0.27827000      -5.40040000       1.41030000       0.20993000
H        1.57311000      -4.51415000       0.57220000       0.20217000
H        0.93000000      -3.90695000       2.12076000       0.21624000
C        0.58183000       4.40706000      -1.47716000      -0.60347000
H        0.18409000       5.41641000      -1.62966000       0.21355000
H        1.43197000       4.47188000      -0.79149000       0.20926000
H        0.94029000       4.02572000      -2.43858000       0.21195000
N        4.00538000       4.66163000       1.22794000       0.49985000
O        5.17749000       4.42188000       0.93688000      -0.39296000
O        3.51912000       5.79305000       1.29515000      -0.39932000
N       -7.18013000      -7.41119000       2.80072000      -0.49292000
C       -7.77545000      -8.00083000       1.61208000      -0.36440000
C       -6.11118000      -8.13873000       3.47356000      -0.36670000
H       -7.57456000      -9.07348000       1.60369000       0.20938000
H       -8.86392000      -7.86957000       1.61065000       0.20123000
H       -7.37572000      -7.56513000       0.68272000       0.19016000
H       -5.12404000      -7.70135000       3.26544000       0.19868000
H       -6.26332000      -8.14928000       4.55957000       0.20045000
H       -6.11303000      -9.17506000       3.13142000       0.20791000
