120
R3TS2minorsNMe2.xyz  (col5 = NBO charge)
O       -2.96186000      -1.88851000      -2.95976000      -0.42926000
N       -1.71397000      -1.56550000      -2.76644000       0.47134000
C       -1.35216000      -0.25493000      -2.62977000      -0.16916000
C       -0.03458000       0.07923000      -2.30464000      -0.07538000
C        0.51446000       1.41795000      -2.51832000      -0.18518000
O       -1.88086000       1.50282000      -0.06679000      -0.70446000
C       -0.69561000       1.25607000       0.15845000       0.79179000
C        0.00217000       0.00089000      -0.01470000      -0.50147000
C       -0.67283000      -1.26289000       0.11874000       0.79480000
O       -1.89435000      -1.45093000       0.04698000      -0.71355000
Ru      -4.72932000      -0.71130000      -2.77463000       0.15790000
S       -5.08087000      -3.86086000      -2.01808000       2.25089000
O       -5.09891000      -3.87481000      -3.49525000      -0.95129000
O       -3.93236000      -4.43336000      -1.29168000      -0.94609000
N       -4.15411000      -0.06112000      -0.84710000      -0.74060000
N       -5.45203000      -2.30941000      -1.52736000      -0.87546000
C       -5.18783000      -0.55370000       0.09973000      -0.01989000
C       -5.18044000      -2.08563000      -0.08046000      -0.06205000
C       -5.02794000      -0.06459000       1.52602000      -0.05135000
C       -6.16983000       0.35094000       2.22428000      -0.20112000
C       -6.08292000       0.77955000       3.54860000      -0.21317000
C       -4.84339000       0.80674000       4.19110000      -0.21558000
C       -3.70042000       0.39796000       3.50083000      -0.20711000
C       -3.78842000      -0.03890000       2.17806000      -0.20626000
C       -6.19158000      -2.72405000       0.85698000      -0.02822000
C       -5.75159000      -3.38113000       2.00955000      -0.20456000
C       -6.66691000      -3.93508000       2.90653000      -0.20791000
C       -8.03677000      -3.83932000       2.65637000      -0.22165000
C       -8.48438000      -3.18038000       1.50760000      -0.20946000
C       -7.56681000      -2.62333000       0.61907000      -0.21686000
C       -4.83147000       1.36137000      -3.75123000       0.00058000
C       -6.06648000       1.03064000      -3.05834000       0.01197000
C       -6.79116000      -0.14638000      -3.41406000       0.01013000
C       -6.31299000      -0.97563000      -4.50240000       0.04858000
C       -5.04093000      -0.73779000      -5.06381000       0.00445000
C       -4.28738000       0.44952000      -4.69138000       0.01561000
C       -4.13627000       2.65804000      -3.38145000      -0.60567000
C       -8.06065000      -0.56482000      -2.71040000      -0.60227000
C       -4.48683000      -1.75228000      -6.03808000      -0.61032000
H       -4.01616000       0.94346000      -0.74442000       0.41490000
H       -6.15470000      -0.19481000      -0.26721000       0.21297000
H       -4.17695000      -2.43977000       0.18710000       0.24499000
H       -7.13877000       0.31515000       1.73168000       0.21303000
H       -6.98065000       1.09119000       4.07624000       0.21558000
H       -4.76952000       1.14358000       5.22199000       0.21497000
H       -2.73132000       0.41627000       3.99300000       0.21615000
H       -2.89855000      -0.35664000       1.65055000       0.24509000
H       -4.68436000      -3.45893000       2.19982000       0.22266000
H       -6.30902000      -4.44622000       3.79659000       0.21562000
H       -8.75137000      -4.27768000       3.34841000       0.21318000
H       -9.54906000      -3.11146000       1.29863000       0.21254000
H       -7.90849000      -2.13837000      -0.28850000       0.21867000
H       -4.85970000       3.47758000      -3.33436000       0.22887000
H       -3.64580000       2.60140000      -2.40186000       0.23066000
H       -3.38098000       2.94352000      -4.11256000       0.22507000
H       -8.94281000      -0.34680000      -3.32569000       0.22671000
H       -8.03111000      -1.63648000      -2.50343000       0.23912000
H       -8.19245000      -0.06499000      -1.75175000       0.21875000
H       -3.45912000      -1.54128000      -6.32616000       0.22471000
H       -4.50604000      -2.74379000      -5.57658000       0.26173000
H       -5.09024000      -1.78172000      -6.95430000       0.22063000
H       -3.23642000      -0.46371000      -0.58780000       0.47192000
H       -2.16786000       0.44545000      -2.64990000       0.22386000
C       -6.51986000      -4.82489000      -1.50587000      -0.26356000
C       -7.73569000      -4.66021000      -2.16853000      -0.20065000
C       -6.41923000      -5.68597000      -0.41477000      -0.18651000
C       -8.86422000      -5.33632000      -1.70998000      -0.21876000
H       -7.79645000      -4.01017000      -3.03344000       0.22629000
C       -7.55515000      -6.35511000       0.03502000      -0.20631000
H       -5.46307000      -5.80339000       0.08138000       0.24539000
C       -8.79547000      -6.17955000      -0.59214000      -0.01702000
H       -9.81445000      -5.20473000      -2.22311000       0.21398000
H       -7.48087000      -7.01043000       0.89945000       0.21812000
C      -10.03115000      -6.85440000      -0.04663000      -0.60638000
H      -10.40792000      -6.31612000       0.83374000       0.22022000
H      -10.83810000      -6.88378000      -0.78639000       0.21269000
H       -9.82203000      -7.88270000       0.26948000       0.21834000
H        1.06424000       0.00880000       0.19681000       0.24315000
O        0.17881000      -2.30128000       0.26293000      -0.55880000
C       -0.43916000      -3.60121000       0.18471000      -0.22852000
H       -1.14012000      -3.74458000       1.01239000       0.18226000
H       -0.97612000      -3.71013000      -0.76128000       0.21865000
H        0.38509000      -4.31278000       0.25384000       0.18405000
O        0.17096000       2.24086000       0.53636000      -0.56500000
C       -0.39663000       3.54765000       0.64630000      -0.22274000
H       -1.22058000       3.55747000       1.36699000       0.18645000
H        0.41634000       4.19144000       0.98779000       0.18749000
H       -0.76553000       3.89382000      -0.32345000       0.18519000
C        1.89885000       1.63343000      -2.40287000      -0.13671000
C       -0.27960000       2.53939000      -2.81138000      -0.06669000
C        2.46600000       2.88658000      -2.56975000      -0.27611000
H        2.54378000       0.79282000      -2.15833000       0.21952000
C        0.26890000       3.80252000      -2.98438000      -0.32313000
H       -1.35399000       2.43146000      -2.88985000       0.20300000
C        1.66405000       4.01544000      -2.86969000       0.22179000
H        3.53847000       2.98809000      -2.45834000       0.22428000
H       -0.39679000       4.62801000      -3.20652000       0.21967000
H        0.67394000      -0.74155000      -2.33271000       0.25706000
O       -0.87920000      -2.48457000      -2.77845000      -0.45621000
C       -7.13082000      -2.13312000      -5.02158000      -0.62750000
H       -7.18093000      -2.09056000      -6.11537000       0.22515000
H       -6.66302000      -3.08025000      -4.74082000       0.27163000
H       -8.15430000      -2.11812000      -4.64732000       0.21829000
C       -6.56845000       2.00058000      -2.00994000      -0.59767000
H       -5.76860000       2.33364000      -1.34317000       0.22427000
H       -6.98151000       2.89484000      -2.49422000       0.23172000
H       -7.35326000       1.57920000      -1.38519000       0.22479000
C       -2.94942000       0.67808000      -5.35969000      -0.60319000
H       -2.30679000      -0.19642000      -5.23977000       0.24027000
H       -3.08907000       0.85151000      -6.43387000       0.22980000
H       -2.40007000       1.52225000      -4.94773000       0.22232000
N        2.22031000       5.27085000      -3.04917000      -0.49495000
C        3.62626000       5.47998000      -2.74277000      -0.36506000
C        1.34804000       6.42979000      -3.13785000      -0.36423000
H        3.88927000       6.51847000      -2.95231000       0.20841000
H        3.86510000       5.26809000      -1.68875000       0.19105000
H        4.26323000       4.84503000      -3.37017000       0.20104000
H        0.68320000       6.35796000      -4.00758000       0.19859000
H        0.72218000       6.55573000      -2.23998000       0.18920000
H        1.95449000       7.32886000      -3.26134000       0.20951000
