131
R3TS20majorsNMe2cNMe2.xyz  (col5 = NBO charge)
O       -0.65798000      -1.87153000       3.16621000      -0.51798000
N       -1.07256000      -0.71514000       3.43459000       0.43548000
C       -0.49027000       0.39897000       2.89398000      -0.19408000
C        0.61742000       0.30610000       2.02950000      -0.10450000
C        1.52554000       1.45383000       1.83773000      -0.16183000
O       -1.90122000      -1.45551000      -0.00032000      -0.68821000
C       -0.68934000      -1.27803000       0.04332000       0.81403000
C        0.00282000       0.00351000      -0.01676000      -0.48920000
C       -0.73087000       1.22175000      -0.26350000       0.80777000
O       -1.89213000       1.48755000       0.07685000      -0.71427000
Ru      -4.68489000       0.71280000       3.32898000       0.25322000
S       -6.95722000      -1.44464000       4.06053000       2.25283000
O       -6.71363000      -1.01361000       5.44680000      -0.94185000
O       -8.14940000      -0.90558000       3.35744000      -0.96893000
N       -3.71733000      -0.16233000       1.65249000      -0.77224000
N       -5.56574000      -1.08845000       3.18252000      -0.85236000
C       -4.66210000      -1.04379000       0.90477000      -0.03215000
C       -5.36658000      -1.91888000       1.96001000      -0.05128000
C       -5.54755000      -0.20479000       0.00383000      -0.03955000
C       -4.94496000       0.36347000      -1.13026000      -0.20342000
C       -5.68550000       1.15701000      -2.00438000      -0.21154000
C       -7.04442000       1.38414000      -1.76321000      -0.22226000
C       -7.64974000       0.81518000      -0.64160000      -0.21613000
C       -6.90506000       0.02876000       0.24376000      -0.22296000
C       -4.55655000      -3.18852000       2.21467000      -0.03518000
C       -4.85010000      -4.34100000       1.47486000      -0.21617000
C       -4.09407000      -5.50226000       1.63558000      -0.21541000
C       -3.02383000      -5.52048000       2.53533000      -0.23162000
C       -2.72185000      -4.37094000       3.26792000      -0.20162000
C       -3.48889000      -3.21409000       3.11654000      -0.21962000
C       -3.73426000       2.88433000       3.30095000       0.00202000
C       -3.64739000       2.37355000       4.61624000       0.03354000
C       -4.83684000       1.84443000       5.26607000       0.00497000
C       -6.10551000       1.99623000       4.65212000       0.03062000
C       -6.16369000       2.34001000       3.25415000       0.04166000
C       -4.96301000       2.73814000       2.56307000       0.01501000
C       -2.55976000       3.51526000       2.58829000      -0.62733000
C       -4.71121000       1.21635000       6.63514000      -0.61015000
C       -7.52144000       2.37930000       2.59483000      -0.61642000
H       -2.98994000      -0.76926000       2.03520000       0.42499000
H       -4.06074000      -1.69389000       0.26638000       0.25801000
H       -6.33385000      -2.22453000       1.54545000       0.22823000
H       -3.88635000       0.18999000      -1.30722000       0.23587000
H       -5.20470000       1.59423000      -2.87559000       0.21753000
H       -7.62618000       1.99730000      -2.44670000       0.21673000
H       -8.70434000       0.98884000      -0.44299000       0.21861000
H       -7.38644000      -0.37570000       1.12809000       0.24107000
H       -5.68610000      -4.33388000       0.77946000       0.21365000
H       -4.34119000      -6.39128000       1.05991000       0.21181000
H       -2.42493000      -6.42057000       2.65410000       0.21149000
H       -1.87227000      -4.34825000       3.94325000       0.22363000
H       -3.23952000      -2.33696000       3.70264000       0.24944000
H       -2.88802000       4.42104000       2.06776000       0.22616000
H       -1.77122000       3.80994000       3.28005000       0.21695000
H       -2.13443000       2.84613000       1.83513000       0.25965000
H       -4.78226000       1.97592000       7.42562000       0.22203000
H       -5.48847000       0.46843000       6.78283000       0.25138000
H       -3.75190000       0.70690000       6.74002000       0.23298000
H       -7.46439000       2.58152000       1.52861000       0.22851000
H       -8.04773000       1.43230000       2.73473000       0.25370000
H       -8.12089000       3.17320000       3.05951000       0.22578000
H       -3.19626000       0.44832000       1.00768000       0.46018000
H       -0.96972000       1.31806000       3.17981000       0.21394000
C       -7.07343000      -3.21304000       4.04152000      -0.35395000
C       -6.19367000      -3.95586000       4.83471000      -0.15034000
C       -7.92748000      -3.85796000       3.14644000      -0.16994000
C       -6.14142000      -5.33267000       4.70740000      -0.26600000
H       -5.53177000      -3.44623000       5.52623000       0.24280000
C       -7.87961000      -5.23921000       3.01515000      -0.28198000
H       -8.61512000      -3.27066000       2.54653000       0.24020000
C       -6.95864000      -6.01038000       3.76786000       0.23465000
H       -5.42844000      -5.87823000       5.31113000       0.22869000
H       -8.54275000      -5.71329000       2.30258000       0.22496000
H        1.00290000      -0.02969000      -0.43110000       0.24872000
O        0.06410000       2.16528000      -0.83266000      -0.56756000
C       -0.46587000       3.49687000      -0.92361000      -0.04187000
H       -1.38557000       3.48585000      -1.51946000       0.18785000
H       -0.72241000       3.85207000       0.08049000       0.18090000
O        0.19255000      -2.29496000       0.19652000      -0.57742000
C       -0.37675000      -3.57933000       0.53641000      -0.04913000
H       -0.66729000      -4.08853000      -0.39080000       0.17658000
H       -1.27138000      -3.42366000       1.13973000       0.21572000
H        1.08749000      -0.67266000       2.00679000       0.25687000
C        2.80087000       1.25014000       1.28609000      -0.15239000
C        1.17393000       2.77879000       2.13569000      -0.07908000
C        3.67383000       2.29824000       1.03252000      -0.27332000
H        3.10932000       0.23845000       1.03196000       0.21787000
C        2.03222000       3.84321000       1.89036000      -0.31462000
H        0.20212000       2.99663000       2.56206000       0.20072000
C        3.31286000       3.63472000       1.32723000       0.20841000
H        4.63951000       2.07245000       0.59702000       0.22276000
H        1.69562000       4.84312000       2.13652000       0.21882000
O       -2.06695000      -0.55102000       4.23210000      -0.54147000
C       -7.39937000       1.81168000       5.40553000      -0.60583000
H       -7.89599000       2.79084000       5.45811000       0.22001000
H       -8.07699000       1.11496000       4.91266000       0.24837000
H       -7.24283000       1.45491000       6.42033000       0.23157000
C       -4.98376000       3.11348000       1.09870000      -0.61600000
H       -5.14916000       4.19433000       0.98705000       0.22436000
H       -4.04257000       2.85986000       0.60770000       0.24314000
H       -5.77004000       2.59242000       0.55645000       0.23787000
C       -2.35379000       2.34444000       5.39567000      -0.61912000
H       -2.51073000       2.72409000       6.41038000       0.22439000
H       -1.98650000       1.31499000       5.45338000       0.26781000
H       -1.57044000       2.94548000       4.93542000       0.21653000
C        0.67546000      -4.34910000       1.31116000      -0.60563000
H        0.28771000      -5.33986000       1.57517000       0.20816000
H        1.59182000      -4.47815000       0.72448000       0.20050000
H        0.91365000      -3.81026000       2.23290000       0.21933000
C        0.61812000       4.35536000      -1.55057000      -0.60548000
H        0.27832000       5.39397000      -1.63547000       0.20807000
H        1.51969000       4.32700000      -0.93076000       0.21432000
H        0.87266000       3.98907000      -2.55051000       0.20931000
N        4.17875000       4.69323000       1.08125000      -0.50181000
C        5.37406000       4.45682000       0.28794000      -0.36441000
C        3.66806000       6.05185000       1.15740000      -0.36424000
H        5.93326000       5.38991000       0.19426000       0.20733000
H        6.03063000       3.72834000       0.77785000       0.20051000
H        5.14650000       4.08498000      -0.72418000       0.18885000
H        2.83672000       6.23343000       0.45658000       0.18633000
H        3.31501000       6.28218000       2.16965000       0.19913000
H        4.47264000       6.75217000       0.92452000       0.20838000
N       -6.85128000      -7.37702000       3.59025000      -0.49516000
C       -7.54326000      -8.00276000       2.47483000      -0.36434000
C       -5.71191000      -8.07641000       4.17113000      -0.36672000
H       -7.34582000      -9.07620000       2.48599000       0.20858000
H       -8.62782000      -7.86710000       2.55933000       0.20083000
H       -7.22171000      -7.59980000       1.50114000       0.18967000
H       -4.75438000      -7.65063000       3.83754000       0.19827000
H       -5.74405000      -8.03956000       5.26657000       0.20030000
H       -5.74926000      -9.12693000       3.87714000       0.20707000
