117
R3TS2minorcNMe2.xyz  (col5 = NBO charge)
O       -3.12147000      -1.87591000      -2.85506000      -0.40635000
N       -1.86521000      -1.58685000      -2.74126000       0.48419000
C       -1.46630000      -0.27217000      -2.62340000      -0.15937000
C       -0.13799000       0.03124000      -2.37551000      -0.08025000
C        0.43790000       1.36562000      -2.58280000      -0.09462000
O       -1.88287000       1.50012000      -0.06005000      -0.71044000
C       -0.69155000       1.25797000       0.14467000       0.78632000
C        0.00063000       0.00006000      -0.00140000      -0.51022000
C       -0.67228000      -1.26105000       0.11222000       0.78739000
O       -1.89541000      -1.45113000       0.04724000      -0.71817000
Ru      -4.86736000      -0.66421000      -2.58596000       0.15601000
S       -5.24116000      -3.81328000      -1.84755000       2.25232000
O       -5.33564000      -3.79996000      -3.32281000      -0.95483000
O       -4.05435000      -4.39775000      -1.19505000      -0.94855000
N       -4.19247000      -0.04032000      -0.68512000      -0.74056000
N       -5.56342000      -2.25610000      -1.32122000      -0.87313000
C       -5.18404000      -0.52456000       0.30892000      -0.01967000
C       -5.21883000      -2.05463000       0.11251000      -0.06162000
C       -4.93746000      -0.05413000       1.72914000      -0.05094000
C       -6.03115000       0.37216000       2.49469000      -0.20119000
C       -5.86281000       0.78347000       3.81662000      -0.21286000
C       -4.58905000       0.78226000       4.38897000      -0.21553000
C       -3.49365000       0.36246000       3.63148000      -0.20676000
C       -3.66327000      -0.05701000       2.31103000      -0.20665000
C       -6.19885000      -2.67294000       1.09749000      -0.02526000
C       -5.71923000      -3.31742000       2.24162000      -0.20487000
C       -6.60223000      -3.83128000       3.19329000      -0.20779000
C       -7.98007000      -3.70930000       3.00666000      -0.22445000
C       -8.46736000      -3.06869000       1.86365000      -0.20980000
C       -7.58151000      -2.55023000       0.92104000      -0.21602000
C       -4.97546000       1.42000000      -3.54640000       0.00021000
C       -6.17631000       1.10469000      -2.78954000       0.01432000
C       -6.94320000      -0.05506000      -3.11629000       0.01173000
C       -6.54306000      -0.88173000      -4.23688000       0.05091000
C       -5.29595000      -0.66603000      -4.85908000       0.00258000
C       -4.50138000       0.50489000      -4.51993000       0.01471000
C       -4.23512000       2.69906000      -3.20348000      -0.60657000
C       -8.18264000      -0.45324000      -2.35035000      -0.60216000
C       -4.81370000      -1.68216000      -5.86915000      -0.61053000
H       -4.03431000       0.96119000      -0.58289000       0.41622000
H       -6.16163000      -0.14292000      -0.00224000       0.21293000
H       -4.21167000      -2.43368000       0.32929000       0.24312000
H       -7.02661000       0.35745000       2.05702000       0.21332000
H       -6.72405000       1.10394000       4.39713000       0.21557000
H       -4.45184000       1.10581000       5.41760000       0.21513000
H       -2.49838000       0.35874000       4.06860000       0.21659000
H       -2.80979000      -0.38400000       1.73153000       0.24394000
H       -4.64614000      -3.41258000       2.38526000       0.22237000
H       -6.21288000      -4.32935000       4.07755000       0.21526000
H       -8.67041000      -4.11247000       3.74371000       0.21183000
H       -9.53913000      -2.98273000       1.70181000       0.21151000
H       -7.95540000      -2.07817000       0.01976000       0.21937000
H       -4.93854000       3.53049000      -3.09947000       0.22966000
H       -3.68459000       2.61891000      -2.25786000       0.23241000
H       -3.52315000       2.98286000      -3.97762000       0.22477000
H       -9.09096000      -0.19522000      -2.90968000       0.22676000
H       -8.17356000      -1.52969000      -2.16858000       0.23948000
H       -8.24437000       0.02755000      -1.37504000       0.21912000
H       -3.78481000      -1.51086000      -6.17909000       0.22450000
H       -4.86502000      -2.68171000      -5.42886000       0.26135000
H       -5.44057000      -1.66320000      -6.77004000       0.22127000
H       -3.26782000      -0.45657000      -0.47631000       0.47190000
H       -2.27183000       0.44023000      -2.60447000       0.22901000
C       -6.64908000      -4.75729000      -1.26374000      -0.31435000
C       -7.90943000      -4.56273000      -1.82813000      -0.17925000
C       -6.50891000      -5.61075000      -0.17087000      -0.16652000
C       -9.02765000      -5.18159000      -1.28490000      -0.27983000
H       -8.02062000      -3.91462000      -2.69009000       0.22410000
C       -7.62027000      -6.23512000       0.37878000      -0.26926000
H       -5.52682000      -5.75628000       0.26393000       0.24350000
C       -8.91396000      -6.02077000      -0.14965000       0.21671000
H       -9.99314000      -4.99835000      -1.74056000       0.21983000
H       -7.47702000      -6.86743000       1.24548000       0.22428000
H        1.06856000       0.00771000       0.17549000       0.24200000
O        0.18020000      -2.30496000       0.22854000      -0.56147000
C       -0.44269000      -3.60209000       0.15807000      -0.22767000
H       -1.13168000      -3.74521000       0.99581000       0.18322000
H       -0.99637000      -3.71062000      -0.77845000       0.21486000
H        0.38010000      -4.31664000       0.21315000       0.18433000
O        0.18207000       2.25359000       0.47715000      -0.56622000
C       -0.39013000       3.55803000       0.58978000      -0.22094000
H       -1.16613000       3.57887000       1.36197000       0.18568000
H        0.43611000       4.21742000       0.86165000       0.18893000
H       -0.82610000       3.87691000      -0.36101000       0.18373000
C        1.83314000       1.52586000      -2.51456000      -0.16531000
C       -0.35004000       2.49872000      -2.85185000      -0.19633000
C        2.42181000       2.77213000      -2.70773000      -0.20848000
H        2.45307000       0.66024000      -2.29554000       0.22217000
C        0.23851000       3.74648000      -3.04686000      -0.21477000
H       -1.42752000       2.40691000      -2.89670000       0.21584000
C        1.62616000       3.89019000      -2.97441000      -0.19998000
H        3.50198000       2.87327000      -2.64889000       0.22161000
H       -0.38855000       4.60980000      -3.25479000       0.21781000
H        2.08407000       4.86372000      -3.12628000       0.21935000
H        0.55415000      -0.80307000      -2.40359000       0.25826000
O       -1.04703000      -2.51315000      -2.81363000      -0.43154000
C       -7.41215000      -2.01720000      -4.71957000      -0.62843000
H       -7.48979000      -1.98848000      -5.81184000       0.22518000
H       -6.96715000      -2.97524000      -4.43742000       0.27306000
H       -8.42406000      -1.96206000      -4.31798000       0.21843000
C       -6.60485000       2.07460000      -1.70910000      -0.59824000
H       -5.76490000       2.39192000      -1.08542000       0.22473000
H       -7.03028000       2.97774000      -2.16536000       0.23239000
H       -7.36084000       1.66067000      -1.04508000       0.22519000
C       -3.19905000       0.71480000      -5.26099000      -0.60254000
H       -2.56109000      -0.16745000      -5.17692000       0.23819000
H       -3.39548000       0.88776000      -6.32620000       0.23129000
H       -2.61806000       1.55374000      -4.88303000       0.22199000
N      -10.03237000      -6.61201000       0.42707000      -0.50411000
C       -9.90265000      -7.19754000       1.75353000      -0.36495000
C      -11.35185000      -6.16303000       0.01640000      -0.36336000
H      -10.87681000      -7.56826000       2.07904000       0.20574000
H       -9.21491000      -8.05099000       1.73979000       0.20080000
H       -9.53498000      -6.47369000       2.49786000       0.19038000
H      -11.51251000      -5.08693000       0.19808000       0.18401000
H      -11.51608000      -6.35482000      -1.05025000       0.19992000
H      -12.11011000      -6.72231000       0.56837000       0.20713000
