120
R3TS20minorsNO2.xyz  (col5 = NBO charge)
O       -3.17327000      -1.94685000      -2.78004000      -0.39531000
N       -1.92092000      -1.64856000      -2.72042000       0.48965000
C       -1.53218000      -0.32296000      -2.62180000      -0.14729000
C       -0.20614000      -0.00404000      -2.41669000      -0.09853000
C        0.33296000       1.34736000      -2.59189000      -0.04797000
O       -1.88510000       1.49272000      -0.05853000      -0.70940000
C       -0.69064000       1.25923000       0.14022000       0.78075000
C        0.00171000      -0.00087000       0.00514000      -0.50494000
C       -0.67076000      -1.26260000       0.10676000       0.78482000
O       -1.89670000      -1.44251000       0.04910000      -0.72044000
Ru      -4.93744000      -0.75784000      -2.46534000       0.15381000
S       -5.20105000      -3.89081000      -1.63018000       2.24907000
O       -5.34857000      -3.92465000      -3.10002000      -0.95140000
O       -3.98166000      -4.43537000      -1.00403000      -0.94626000
N       -4.22073000      -0.05808000      -0.60438000      -0.74130000
N       -5.54215000      -2.33336000      -1.13282000      -0.87605000
C       -5.15917000      -0.55006000       0.43857000      -0.01976000
C       -5.14839000      -2.08347000       0.28170000      -0.06320000
C       -4.87190000      -0.03670000       1.83541000      -0.05266000
C       -5.94167000       0.41614000       2.61870000      -0.20079000
C       -5.73315000       0.86959000       3.92118000      -0.21198000
C       -4.44298000       0.88323000       4.45492000      -0.21371000
C       -3.37107000       0.43580000       3.67956000      -0.20607000
C       -3.58086000      -0.02531000       2.37926000      -0.20545000
C       -6.06579000      -2.71773000       1.31339000      -0.02970000
C       -5.51752000      -3.35535000       2.42992000      -0.20405000
C       -6.34323000      -3.90511000       3.41230000      -0.20712000
C       -7.73085000      -3.82495000       3.28446000      -0.22049000
C       -8.28625000      -3.18575000       2.17221000      -0.20851000
C       -7.45763000      -2.63231000       1.19811000      -0.21685000
C       -5.12434000       1.29324000      -3.47695000       0.00151000
C       -6.29007000       0.97627000      -2.66837000       0.01784000
C       -7.04205000      -0.20978000      -2.93178000       0.01370000
C       -6.66851000      -1.05797000      -4.04614000       0.05213000
C       -5.45243000      -0.83297000      -4.72379000       0.00454000
C       -4.66614000       0.35797000      -4.43948000       0.01563000
C       -4.39800000       2.59628000      -3.19987000      -0.60642000
C       -8.24261000      -0.61091000      -2.10765000      -0.60229000
C       -4.99104000      -1.86350000      -5.72907000      -0.61133000
H       -4.10102000       0.95153000      -0.53380000       0.41455000
H       -6.15934000      -0.20692000       0.15563000       0.21331000
H       -4.12153000      -2.42318000       0.46499000       0.24582000
H       -6.94971000       0.39164000       2.21109000       0.21283000
H       -6.57589000       1.21120000       4.51642000       0.21633000
H       -4.27463000       1.23955000       5.46786000       0.21593000
H       -2.36349000       0.44318000       4.08727000       0.21704000
H       -2.74572000      -0.37318000       1.78547000       0.24228000
H       -4.43683000      -3.42172000       2.52470000       0.22261000
H       -5.90211000      -4.40078000       4.27318000       0.21625000
H       -8.37617000      -4.25989000       4.04337000       0.21396000
H       -9.36596000      -3.12899000       2.05896000       0.21315000
H       -7.88456000      -2.16254000       0.31898000       0.21706000
H       -5.11382000       3.41632000      -3.09196000       0.23202000
H       -3.81016000       2.55574000      -2.27427000       0.23102000
H       -3.72400000       2.87229000      -4.01022000       0.22495000
H       -9.17602000      -0.39273000      -2.64178000       0.22887000
H       -8.20123000      -1.68016000      -1.89134000       0.23814000
H       -8.28158000      -0.09880000      -1.14735000       0.21986000
H       -3.99688000      -1.65672000      -6.11998000       0.22424000
H       -4.96473000      -2.84745000      -5.25203000       0.26183000
H       -5.67964000      -1.90858000      -6.58214000       0.22323000
H       -3.27532000      -0.43463000      -0.41430000       0.47317000
H       -2.34814000       0.37659000      -2.57682000       0.23090000
C       -6.57460000      -4.86070000      -0.97619000      -0.26522000
C       -7.84734000      -4.71658000      -1.52746000      -0.20017000
C       -6.36454000      -5.70497000       0.11245000      -0.18533000
C       -8.92128000      -5.39851000      -0.95981000      -0.21803000
H       -7.99443000      -4.07781000      -2.39041000       0.22601000
C       -7.44710000      -6.37972000       0.67176000      -0.20567000
H       -5.36620000      -5.80545000       0.52157000       0.24560000
C       -8.74119000      -6.22611000       0.15741000      -0.01467000
H       -9.91560000      -5.28384000      -1.38585000       0.21481000
H       -7.28703000      -7.02249000       1.53387000       0.21893000
C       -9.91392000      -6.90729000       0.82085000      -0.60683000
H      -10.21425000      -6.36243000       1.72613000       0.22090000
H      -10.78474000      -6.95364000       0.15859000       0.21324000
H       -9.66484000      -7.92945000       1.12747000       0.21896000
H        1.07201000       0.00667000       0.16714000       0.24025000
O        0.17595000      -2.30991000       0.19809000      -0.57141000
C       -0.44505000      -3.61984000       0.14104000      -0.05172000
H       -1.05673000      -3.75787000       1.03976000       0.18201000
H       -1.11143000      -3.66567000      -0.72450000       0.21747000
O        0.18688000       2.25717000       0.44699000      -0.58050000
C       -0.36561000       3.57927000       0.57064000      -0.04202000
H       -1.08094000       3.59316000       1.40146000       0.18710000
H       -0.91520000       3.83008000      -0.34181000       0.18270000
C        1.72052000       1.55724000      -2.47229000      -0.16101000
C       -0.49058000       2.45668000      -2.86418000      -0.19153000
C        2.26989000       2.82531000      -2.59231000      -0.18022000
H        2.36621000       0.71157000      -2.25475000       0.23312000
C        0.04417000       3.73146000      -2.99518000      -0.18543000
H       -1.55987000       2.32640000      -2.95956000       0.22510000
C        1.41970000       3.90328000      -2.84770000       0.05727000
H        3.33347000       2.99705000      -2.48416000       0.25517000
H       -0.58197000       4.59181000      -3.19674000       0.25225000
H        0.50303000      -0.82359000      -2.44785000       0.26179000
O       -1.09269000      -2.56053000      -2.82243000      -0.41608000
C       -7.52911000      -2.22461000      -4.46459000      -0.62843000
H       -7.67500000      -2.20791000      -5.55028000       0.22683000
H       -7.03749000      -3.16559000      -4.20372000       0.27192000
H       -8.51553000      -2.19873000      -4.00212000       0.21957000
C       -6.70075000       1.96830000      -1.60132000      -0.59879000
H       -5.84534000       2.33221000      -1.02624000       0.22472000
H       -7.17331000       2.84207000      -2.06807000       0.23443000
H       -7.41393000       1.55510000      -0.89123000       0.22593000
C       -3.39049000       0.56882000      -5.22514000      -0.60201000
H       -2.74405000      -0.30835000      -5.15352000       0.23707000
H       -3.62162000       0.73006000      -6.28514000       0.23375000
H       -2.80547000       1.41685000      -4.87478000       0.22036000
C        0.67793000      -4.63466000       0.05085000      -0.60232000
H        0.25896000      -5.64616000       0.01718000       0.21447000
H        1.26443000      -4.47440000      -0.85974000       0.20729000
H        1.34883000      -4.56228000       0.91385000       0.20278000
C        0.79739000       4.52692000       0.80445000      -0.60288000
H        0.43503000       5.55716000       0.89046000       0.21263000
H        1.33111000       4.26725000       1.72435000       0.21065000
H        1.50742000       4.47712000      -0.02692000       0.20547000
N        1.98341000       5.25459000      -2.94681000       0.50108000
O        1.21656000       6.17625000      -3.23118000      -0.39500000
O        3.18869000       5.38882000      -2.73177000      -0.38987000
