115
R3TS2majorsOMecNO2.xyz  (col5 = NBO charge)
O       -1.40851000      -2.20211000       3.17167000      -0.44020000
N       -1.99657000      -1.11275000       3.07588000       0.47103000
C       -1.33656000       0.05186000       2.75333000      -0.16016000
C        0.00423000       0.03322000       2.38861000      -0.05571000
C        0.90904000       1.17568000       2.48734000      -0.13275000
O       -1.89463000      -1.50881000       0.07709000      -0.71035000
C       -0.68782000      -1.27965000      -0.03863000       0.78625000
C       -0.02961000      -0.00653000      -0.02868000      -0.51493000
C       -0.70037000       1.25378000      -0.16627000       0.78585000
O       -1.89832000       1.52048000      -0.00391000      -0.72676000
Ru      -4.92410000       0.29791000       2.68577000       0.18970000
S       -7.19130000      -2.01591000       2.80892000       2.25793000
O       -7.02320000      -1.88788000       4.26717000      -0.94329000
O       -8.41453000      -1.41711000       2.20566000      -0.98156000
N       -4.09862000      -0.06558000       0.78128000      -0.74323000
N       -5.81651000      -1.51757000       2.08263000      -0.88003000
C       -4.95553000      -0.87466000      -0.13625000      -0.02446000
C       -5.62296000      -1.99801000       0.69038000      -0.04643000
C       -5.88772000       0.03711000      -0.91312000      -0.04172000
C       -5.31709000       0.83484000      -1.91867000      -0.21007000
C       -6.09679000       1.72353000      -2.65622000      -0.21023000
C       -7.46951000       1.81948000      -2.40600000      -0.21947000
C       -8.04559000       1.02253000      -1.41626000      -0.21075000
C       -7.26025000       0.13869000      -0.66853000      -0.22453000
C       -4.83345000      -3.30579000       0.62000000      -0.03804000
C       -5.12074000      -4.21589000      -0.40454000      -0.21712000
C       -4.45970000      -5.44344000      -0.47686000      -0.21653000
C       -3.49901000      -5.77504000       0.48222000      -0.22565000
C       -3.20272000      -4.86495000       1.49919000      -0.21005000
C       -3.86253000      -3.63780000       1.56736000      -0.20675000
C       -4.28052000       2.49615000       3.09018000      -0.01445000
C       -4.24157000       1.76873000       4.30850000       0.04444000
C       -5.42265000       1.07719000       4.79277000      -0.03433000
C       -6.63880000       1.21029000       4.08394000       0.08222000
C       -6.64520000       1.78378000       2.76130000      -0.00710000
C       -5.44860000       2.38462000       2.24999000       0.03857000
C       -3.14237000       3.37000000       2.60689000      -0.62509000
C       -5.37256000       0.28381000       6.07934000      -0.60636000
C       -7.96989000       1.89387000       2.04476000      -0.61515000
H       -3.21841000      -0.59192000       0.87241000       0.45643000
H       -4.27432000      -1.34346000      -0.85521000       0.23961000
H       -6.59119000      -2.20007000       0.21644000       0.22293000
H       -4.24803000       0.76356000      -2.11113000       0.22546000
H       -5.63760000       2.33433000      -3.42889000       0.21959000
H       -8.08365000       2.50603000      -2.98258000       0.21868000
H       -9.11085000       1.09167000      -1.21172000       0.21995000
H       -7.72351000      -0.44674000       0.11857000       0.24201000
H       -5.88878000      -3.97577000      -1.13772000       0.21288000
H       -4.70982000      -6.14679000      -1.26700000       0.21635000
H       -2.99675000      -6.73804000       0.44108000       0.21565000
H       -2.45983000      -5.10750000       2.25453000       0.21600000
H       -3.65292000      -2.95330000       2.37739000       0.24605000
H       -3.54255000       4.31948000       2.23652000       0.23104000
H       -2.44788000       3.61537000       3.41014000       0.21857000
H       -2.58422000       2.91067000       1.78354000       0.25284000
H       -5.70655000       0.88910000       6.93280000       0.22091000
H       -6.00867000      -0.59763000       5.99677000       0.25165000
H       -4.36448000      -0.07094000       6.29270000       0.22625000
H       -7.87346000       2.30835000       1.04492000       0.22782000
H       -8.45501000       0.91927000       1.96524000       0.25389000
H       -8.63196000       2.55546000       2.61906000       0.22300000
H       -3.77146000       0.77486000       0.30378000       0.43676000
H       -1.96047000       0.92641000       2.75142000       0.22935000
C       -7.29786000      -3.77917000       2.44151000      -0.23450000
C       -6.41587000      -4.64979000       3.08378000      -0.17402000
C       -8.20417000      -4.22876000       1.48062000      -0.19739000
C       -6.40704000      -5.99327000       2.72627000      -0.17501000
H       -5.72408000      -4.26715000       3.82491000       0.25449000
C       -8.20449000      -5.57422000       1.12210000      -0.18387000
H       -8.88648000      -3.52428000       1.01859000       0.25260000
C       -7.29205000      -6.42767000       1.73986000       0.07217000
H       -5.71360000      -6.69414000       3.17193000       0.25783000
H       -8.87832000      -5.96319000       0.36926000       0.25469000
H        1.03658000      -0.00584000      -0.21051000       0.24184000
O        0.20238000       2.24631000      -0.43252000      -0.56537000
C       -0.32662000       3.56991000      -0.49919000      -0.21978000
H       -1.14553000       3.63341000      -1.22248000       0.18709000
H       -0.69155000       3.89612000       0.48018000       0.17737000
H        0.50646000       4.20349000      -0.80857000       0.19179000
O        0.21429000      -2.29750000      -0.10182000      -0.57080000
C       -0.33496000      -3.60103000       0.14323000      -0.22928000
H       -1.14064000      -3.83316000      -0.55772000       0.19459000
H        0.49740000      -4.29654000       0.02046000       0.18499000
H       -0.73705000      -3.64794000       1.15874000       0.19712000
H        0.47272000      -0.94548000       2.37873000       0.25534000
C        2.28112000       0.98526000       2.25483000      -0.13433000
C        0.47731000       2.47829000       2.80312000      -0.17130000
C        3.18998000       2.03685000       2.31677000      -0.29864000
H        2.64022000      -0.00927000       2.00257000       0.22406000
C        1.36747000       3.53738000       2.86853000      -0.25332000
H       -0.57003000       2.66305000       2.99824000       0.21539000
C        2.73376000       3.32883000       2.61926000       0.35242000
H        4.23920000       1.84421000       2.12680000       0.23133000
H        1.03456000       4.54128000       3.11247000       0.23018000
O       -3.26176000      -1.06919000       3.37935000      -0.45179000
C       -7.95855000       0.81383000       4.69545000      -0.61446000
H       -8.50289000       1.74312000       4.91858000       0.22458000
H       -8.57169000       0.21839000       4.02051000       0.25235000
H       -7.84360000       0.25341000       5.61871000       0.23441000
C       -5.42613000       3.03743000       0.88616000      -0.61469000
H       -5.70762000       4.09573000       0.97151000       0.23095000
H       -4.43325000       2.99355000       0.43417000       0.23198000
H       -6.11443000       2.55807000       0.19343000       0.24110000
C       -2.99683000       1.69765000       5.16478000      -0.60632000
H       -3.21223000       2.06727000       6.17348000       0.23339000
H       -2.66007000       0.66131000       5.25123000       0.24262000
H       -2.16514000       2.27494000       4.76570000       0.22018000
O        3.52328000       4.43240000       2.70128000      -0.54339000
C        4.91578000       4.28918000       2.45417000      -0.22159000
H        5.10799000       3.92366000       1.43670000       0.18119000
H        5.34301000       5.28707000       2.56678000       0.20046000
H        5.38504000       3.60935000       3.17772000       0.18041000
N       -7.24549000      -7.83891000       1.31962000       0.50364000
O       -8.02337000      -8.19854000       0.43564000      -0.39203000
O       -6.42762000      -8.57373000       1.87196000      -0.38711000
