125
R3TS2majorsNMe2cNMe2.xyz  (col5 = NBO charge)
O       -0.77616000      -2.04655000       3.10230000      -0.52213000
N       -1.28192000      -0.91493000       3.30794000       0.43605000
C       -0.70769000       0.22972000       2.82849000      -0.19709000
C        0.47004000       0.19555000       2.05038000      -0.11309000
C        1.38131000       1.35911000       1.99577000      -0.12866000
O       -1.90080000      -1.46219000       0.03777000      -0.68188000
C       -0.69099000      -1.28099000      -0.00833000       0.81145000
C        0.00196000       0.00158000       0.00146000      -0.47800000
C       -0.72356000       1.23022000      -0.24147000       0.81178000
O       -1.89735000       1.49066000       0.05017000      -0.70843000
Ru      -4.92809000       0.61313000       3.08432000       0.25097000
S       -7.24471000      -1.57017000       3.52750000       2.25274000
O       -7.06655000      -1.24985000       4.95313000      -0.94112000
O       -8.39562000      -0.96320000       2.81094000      -0.96905000
N       -3.87813000      -0.13655000       1.40766000      -0.77291000
N       -5.80883000      -1.16182000       2.74948000      -0.85281000
C       -4.77926000      -0.94571000       0.53801000      -0.03023000
C       -5.54859000      -1.89682000       1.47707000      -0.05024000
C       -5.61222000      -0.02752000      -0.33668000      -0.03862000
C       -4.95128000       0.62680000      -1.38848000      -0.20437000
C       -5.64166000       1.49639000      -2.23095000      -0.21156000
C       -7.00950000       1.71643000      -2.03991000      -0.22190000
C       -7.67309000       1.06462000      -0.99918000      -0.21526000
C       -6.97861000       0.20107000      -0.14559000      -0.22225000
C       -4.76811000      -3.19506000       1.67075000      -0.03459000
C       -5.04918000      -4.28468000       0.83746000      -0.21639000
C       -4.32094000      -5.46999000       0.94455000      -0.21614000
C       -3.29279000      -5.57541000       1.88587000      -0.22980000
C       -3.00384000      -4.48808000       2.71318000      -0.20376000
C       -3.74040000      -3.30681000       2.61182000      -0.21739000
C       -3.95206000       2.75863000       3.26338000       0.00278000
C       -3.92210000       2.13969000       4.53490000       0.03199000
C       -5.14527000       1.58706000       5.09768000       0.00754000
C       -6.38686000       1.80736000       4.44969000       0.02847000
C       -6.38512000       2.25982000       3.08173000       0.04261000
C       -5.15380000       2.69578000       2.47205000       0.01393000
C       -2.74063000       3.42151000       2.64665000      -0.62542000
C       -5.08221000       0.84869000       6.41501000      -0.60998000
C       -7.71438000       2.36423000       2.37280000      -0.61647000
H       -3.17861000      -0.77641000       1.78952000       0.43512000
H       -4.14383000      -1.54710000      -0.11656000       0.25398000
H       -6.49487000      -2.15419000       0.98787000       0.22752000
H       -3.88536000       0.46208000      -1.52664000       0.23124000
H       -5.11501000       1.99825000      -3.03849000       0.21766000
H       -7.55268000       2.38865000      -2.69910000       0.21720000
H       -8.73509000       1.23239000      -0.83884000       0.21911000
H       -7.50649000      -0.26793000       0.67815000       0.24188000
H       -5.85571000      -4.21170000       0.11160000       0.21286000
H       -4.55926000      -6.31038000       0.29652000       0.21128000
H       -2.71730000      -6.49490000       1.96566000       0.21132000
H       -2.18937000      -4.53268000       3.42989000       0.22388000
H       -3.50003000      -2.48035000       3.27137000       0.25013000
H       -3.03459000       4.37170000       2.18858000       0.22647000
H       -1.97624000       3.64621000       3.38970000       0.21820000
H       -2.29253000       2.80760000       1.85974000       0.25669000
H       -5.17033000       1.54381000       7.26110000       0.22217000
H       -5.87701000       0.10678000       6.47371000       0.25068000
H       -4.13632000       0.31358000       6.51305000       0.23381000
H       -7.61214000       2.64880000       1.32886000       0.22772000
H       -8.25124000       1.41373000       2.41577000       0.25432000
H       -8.32818000       3.12462000       2.87323000       0.22594000
H       -3.30788000       0.50781000       0.84437000       0.45757000
H       -1.25692000       1.12288000       3.06692000       0.21371000
C       -7.37467000      -3.32988000       3.36571000      -0.35421000
C       -6.53936000      -4.14202000       4.13889000      -0.14995000
C       -8.19365000      -3.89373000       2.38713000      -0.16977000
C       -6.49622000      -5.50596000       3.91076000      -0.26588000
H       -5.90368000      -3.69488000       4.89517000       0.24310000
C       -8.15487000      -5.26197000       2.15478000      -0.28232000
H       -8.84702000      -3.25359000       1.80321000       0.24010000
C       -7.27777000      -6.10012000       2.88798000       0.23465000
H       -5.81645000      -6.10478000       4.50214000       0.22884000
H       -8.78995000      -5.67211000       1.37971000       0.22484000
H        1.01219000      -0.01744000      -0.38964000       0.25105000
O        0.09408000       2.18790000      -0.75293000      -0.55305000
C       -0.46024000       3.50206000      -0.84577000      -0.22223000
H       -1.38446000       3.50053000      -1.43143000       0.18857000
H       -0.66806000       3.90371000       0.15106000       0.18242000
H        0.30441000       4.10711000      -1.33526000       0.19373000
O        0.19417000      -2.30806000      -0.01329000      -0.56482000
C       -0.39081000      -3.59695000       0.23798000      -0.22998000
H       -1.13087000      -3.84732000      -0.52771000       0.18615000
H        0.44117000      -4.30301000       0.21325000       0.18418000
H       -0.87473000      -3.59538000       1.21682000       0.21221000
H        0.96366000      -0.77263000       2.04750000       0.25614000
C        2.70302000       1.18824000       1.55440000      -0.15468000
C        0.99613000       2.66276000       2.33974000      -0.18514000
C        3.59123000       2.24931000       1.44999000      -0.27350000
H        3.04290000       0.19149000       1.28167000       0.21779000
C        1.86795000       3.74030000       2.24004000      -0.24890000
H       -0.00728000       2.84959000       2.70277000       0.20966000
C        3.19228000       3.56769000       1.77488000       0.20333000
H        4.60068000       2.04700000       1.11318000       0.22232000
H        1.51083000       4.72050000       2.53279000       0.21879000
O       -2.36274000      -0.80093000       3.99887000      -0.55198000
C       -7.71222000       1.58011000       5.13355000      -0.60510000
H       -8.20478000       2.55689000       5.23987000       0.21972000
H       -8.37287000       0.92829000       4.56228000       0.24815000
H       -7.60031000       1.14659000       6.12416000       0.23121000
C       -5.11147000       3.18664000       1.04271000      -0.61325000
H       -5.25245000       4.27613000       1.01077000       0.22491000
H       -4.15608000       2.95322000       0.56931000       0.23876000
H       -5.88381000       2.72630000       0.43020000       0.23795000
C       -2.65680000       2.01378000       5.35039000      -0.61898000
H       -2.83650000       2.32417000       6.38482000       0.22408000
H       -2.32263000       0.97134000       5.34334000       0.26855000
H       -1.84004000       2.61901000       4.95923000       0.21698000
N        4.06085000       4.64299000       1.63942000      -0.50352000
C        3.68344000       5.93256000       2.19121000      -0.36435000
C        5.46777000       4.39007000       1.37730000      -0.36454000
H        4.47623000       6.65603000       1.99064000       0.20777000
H        2.76769000       6.30874000       1.71867000       0.19709000
H        3.51453000       5.89768000       3.27978000       0.18790000
H        5.94793000       3.79381000       2.16984000       0.18879000
H        5.60025000       3.85968000       0.42664000       0.19977000
H        5.99555000       5.34258000       1.29744000       0.20713000
N       -7.17795000      -7.45130000       2.61385000      -0.49524000
C       -7.82565000      -7.98270000       1.42537000      -0.36431000
C       -6.07513000      -8.20898000       3.19218000      -0.36671000
H       -7.64110000      -9.05681000       1.36530000       0.20862000
H       -8.91134000      -7.83772000       1.47139000       0.20079000
H       -7.45569000      -7.51371000       0.49958000       0.18952000
H       -5.09820000      -7.77449000       2.93495000       0.19831000
H       -6.15755000      -8.25242000       4.28475000       0.20027000
H       -6.11136000      -9.23430000       2.81954000       0.20709000
