118
R3TS20major.xyz  (col5 = NBO charge)
O       -0.75705000      -1.92338000       3.17054000      -0.49592000
N       -1.18486000      -0.77387000       3.42769000       0.44621000
C       -0.56721000       0.35244000       2.92888000      -0.19064000
C        0.55982000       0.26255000       2.10820000      -0.10678000
C        1.47995000       1.40713000       1.93152000      -0.07434000
O       -1.90210000      -1.45178000       0.00408000      -0.69276000
C       -0.68908000      -1.27558000       0.04154000       0.80829000
C        0.00146000       0.00208000      -0.02384000      -0.49685000
C       -0.72523000       1.22365000      -0.25155000       0.80154000
O       -1.89578000       1.48090000       0.06936000      -0.72041000
Ru      -4.88836000       0.71427000       3.13592000       0.25230000
S       -7.19799000      -1.43822000       3.70916000       2.24851000
O       -7.04039000      -1.03182000       5.11410000      -0.93703000
O       -8.34687000      -0.89301000       2.94496000      -0.96298000
N       -3.80968000      -0.15154000       1.52588000      -0.77408000
N       -5.75973000      -1.08016000       2.91892000      -0.85396000
C       -4.70977000      -1.01793000       0.70720000      -0.03284000
C       -5.48406000      -1.90237000       1.70346000      -0.05115000
C       -5.53243000      -0.15964000      -0.23461000      -0.04100000
C       -4.85763000       0.41767000      -1.32240000      -0.20242000
C       -5.53696000       1.23064000      -2.22784000      -0.21069000
C       -6.90557000       1.46880000      -2.06499000      -0.22128000
C       -7.58243000       0.89137000      -0.98952000      -0.21577000
C       -6.89950000       0.08535000      -0.07263000      -0.22320000
C       -4.69695000      -3.17532000       2.00285000      -0.04000000
C       -4.96594000      -4.33130000       1.25986000      -0.21268000
C       -4.22933000      -5.49755000       1.46750000      -0.21181000
C       -3.20276000      -5.51672000       2.41643000      -0.22673000
C       -2.92266000      -4.36279000       3.15034000      -0.20149000
C       -3.67201000      -3.20133000       2.95303000      -0.22252000
C       -3.89902000       2.86268000       3.19647000       0.00553000
C       -3.89924000       2.32949000       4.50684000       0.03288000
C       -5.13475000       1.81675000       5.07877000       0.00989000
C       -6.36256000       1.99933000       4.39341000       0.02691000
C       -6.33101000       2.36903000       3.00125000       0.04652000
C       -5.08574000       2.75752000       2.38758000       0.01517000
C       -2.66914000       3.47151000       2.56237000      -0.62793000
C       -5.09902000       1.16822000       6.44347000      -0.61022000
C       -7.64521000       2.43283000       2.26033000      -0.61616000
H       -3.11132000      -0.76609000       1.94912000       0.42516000
H       -4.07235000      -1.66303000       0.09975000       0.25993000
H       -6.42457000      -2.19907000       1.22548000       0.22948000
H       -3.79199000       0.23656000      -1.43794000       0.23629000
H       -5.00079000       1.67429000      -3.06263000       0.21817000
H       -7.43948000       2.09683000      -2.77345000       0.21733000
H       -8.64544000       1.07273000      -0.85230000       0.21892000
H       -7.43736000      -0.32669000       0.77473000       0.23977000
H       -5.76809000      -4.32349000       0.52549000       0.21442000
H       -4.45706000      -6.38961000       0.88892000       0.21341000
H       -2.62269000      -6.42245000       2.57530000       0.21332000
H       -2.10616000      -4.34145000       3.86532000       0.22455000
H       -3.44379000      -2.32370000       3.54681000       0.24530000
H       -2.94307000       4.39193000       2.03637000       0.22729000
H       -1.91465000       3.73639000       3.30244000       0.21700000
H       -2.21844000       2.80060000       1.82567000       0.26119000
H       -5.19249000       1.92040000       7.23854000       0.22369000
H       -5.90122000       0.43902000       6.54179000       0.25073000
H       -4.15938000       0.63354000       6.59257000       0.23296000
H       -7.52105000       2.65141000       1.20309000       0.22955000
H       -8.18872000       1.48941000       2.35131000       0.25233000
H       -8.26490000       3.22483000       2.70076000       0.22741000
H       -3.24268000       0.45998000       0.92072000       0.46239000
H       -1.05168000       1.26913000       3.21554000       0.21768000
C       -7.31856000      -3.22069000       3.66441000      -0.29854000
C       -6.49021000      -3.96847000       4.50506000      -0.16962000
C       -8.16728000      -3.83654000       2.74704000      -0.18878000
C       -6.49625000      -5.35361000       4.39531000      -0.20266000
H       -5.83855000      -3.46531000       5.21044000       0.24473000
C       -8.16303000      -5.22838000       2.65475000      -0.21686000
H       -8.81133000      -3.22979000       2.11928000       0.24337000
C       -7.31564000      -6.00196000       3.45807000       0.00317000
H       -5.83568000      -5.94212000       5.02618000       0.22406000
H       -8.81619000      -5.71877000       1.93729000       0.22042000
C       -7.23927000      -7.49972000       3.29423000      -0.60947000
H       -6.32825000      -7.77098000       2.74445000       0.22616000
H       -7.19685000      -8.00938000       4.26333000       0.22069000
H       -8.09563000      -7.89309000       2.73739000       0.21477000
H        1.01655000      -0.02411000      -0.39924000       0.24790000
O        0.07690000       2.18302000      -0.78345000      -0.56844000
C       -0.46953000       3.50788000      -0.88118000      -0.04160000
H       -1.37136000       3.48623000      -1.50363000       0.18775000
H       -0.76318000       3.85213000       0.11683000       0.17943000
O        0.18973000      -2.29600000       0.19930000      -0.57923000
C       -0.38731000      -3.58104000       0.52404000      -0.04961000
H       -0.68234000      -4.07669000      -0.40899000       0.17759000
H       -1.28098000      -3.42776000       1.12989000       0.21524000
H        1.01587000      -0.72109000       2.05994000       0.25866000
C        2.78313000       1.16739000       1.46324000      -0.18080000
C        1.10804000       2.73442000       2.20120000      -0.20162000
C        3.68193000       2.21336000       1.26900000      -0.20692000
H        3.08436000       0.14605000       1.24298000       0.22110000
C        2.00530000       3.78338000       2.00808000      -0.21103000
H        0.10933000       2.95346000       2.55946000       0.21305000
C        3.29658000       3.52930000       1.53931000      -0.20917000
H        4.68459000       2.00229000       0.90719000       0.22034000
H        1.69447000       4.80248000       2.22371000       0.21718000
H        3.99606000       4.34716000       1.38933000       0.21869000
O       -2.21376000      -0.60926000       4.16898000      -0.52511000
C       -7.70228000       1.81605000       5.06262000      -0.60574000
H       -8.19640000       2.79701000       5.09612000       0.22126000
H       -8.35208000       1.12933000       4.52019000       0.24753000
H       -7.61162000       1.44686000       6.08104000       0.23172000
C       -5.01406000       3.15000000       0.92935000      -0.61667000
H       -5.16161000       4.23362000       0.82076000       0.22555000
H       -4.04787000       2.89114000       0.49289000       0.24387000
H       -5.77103000       2.64274000       0.33457000       0.23822000
C       -2.65328000       2.26579000       5.35911000      -0.61841000
H       -2.86525000       2.62191000       6.37212000       0.22524000
H       -2.29500000       1.23316000       5.41263000       0.26685000
H       -1.84068000       2.87205000       4.96070000       0.21688000
C        0.66140000      -4.36761000       1.28659000      -0.60491000
H        0.26985000      -5.36091000       1.53483000       0.20904000
H        1.57714000      -4.49121000       0.69796000       0.20142000
H        0.90321000      -3.84612000       2.21756000       0.21652000
C        0.61778000       4.38752000      -1.47132000      -0.60496000
H        0.26176000       5.41989000      -1.56351000       0.20877000
H        1.50207000       4.37441000      -0.82667000       0.21474000
H        0.90795000       4.02920000      -2.46432000       0.20981000
