118
R3TS2minorsCNcNMe2.xyz  (col5 = NBO charge)
O       -3.14354000      -1.91603000      -2.82277000      -0.39851000
N       -1.89000000      -1.62422000      -2.72977000       0.48702000
C       -1.49428000      -0.30424000      -2.61949000      -0.15410000
C       -0.16748000       0.00232000      -2.37979000      -0.09917000
C        0.39570000       1.34325000      -2.57297000      -0.05438000
O       -1.88347000       1.49584000      -0.05947000      -0.70512000
C       -0.69196000       1.25812000       0.14481000       0.78377000
C        0.00211000      -0.00019000      -0.00277000      -0.50238000
C       -0.67252000      -1.26141000       0.11415000       0.78676000
O       -1.89565000      -1.44641000       0.04596000      -0.71461000
Ru      -4.89806000      -0.70929000      -2.54647000       0.15419000
S       -5.23574000      -3.84424000      -1.74316000       2.25175000
O       -5.34902000      -3.85800000      -3.21707000      -0.95473000
O       -4.03188000      -4.40068000      -1.09693000      -0.94876000
N       -4.20853000      -0.04085000      -0.66529000      -0.73980000
N       -5.56762000      -2.27982000      -1.24261000      -0.87307000
C       -5.18456000      -0.51489000       0.35045000      -0.01971000
C       -5.21087000      -2.04783000       0.18349000      -0.06202000
C       -4.91927000      -0.01592000       1.75685000      -0.05157000
C       -5.99218000       0.47925000       2.50936000      -0.20064000
C       -5.80427000       0.92087000       3.81912000      -0.21202000
C       -4.53135000       0.87967000       4.39132000      -0.21423000
C       -3.45605000       0.38982000       3.64671000      -0.20640000
C       -3.64571000      -0.05902000       2.33908000      -0.20606000
C       -6.17659000      -2.65192000       1.19152000      -0.02582000
C       -5.68034000      -3.26812000       2.34422000      -0.20501000
C       -6.54959000      -3.76802000       3.31569000      -0.20753000
C       -7.93014000      -3.66042000       3.14056000      -0.22384000
C       -8.43389000      -3.04798000       1.98936000      -0.20921000
C       -7.56174000      -2.54299000       1.02685000      -0.21585000
C       -5.03268000       1.35280000      -3.54811000       0.00011000
C       -6.22255000       1.04530000      -2.77128000       0.01568000
C       -6.98404000      -0.12730000      -3.06393000       0.01326000
C       -6.59293000      -0.97280000      -4.17366000       0.05210000
C       -5.35522000      -0.76108000      -4.81552000       0.00364000
C       -4.56317000       0.42013000      -4.50713000       0.01444000
C       -4.29885000       2.64463000      -3.24110000      -0.60586000
C       -8.21085000      -0.51835000      -2.27458000      -0.60259000
C       -4.87980000      -1.79264000      -5.81305000      -0.61089000
H       -4.06292000       0.96448000      -0.58388000       0.41488000
H       -6.16831000      -0.14450000       0.04547000       0.21326000
H       -4.19941000      -2.41674000       0.39756000       0.24271000
H       -6.98765000       0.49743000       2.07158000       0.21279000
H       -6.64965000       1.29580000       4.39013000       0.21607000
H       -4.37885000       1.22621000       5.41017000       0.21573000
H       -2.46180000       0.35424000       4.08466000       0.21677000
H       -2.80838000      -0.44041000       1.76898000       0.24197000
H       -4.60520000      -3.35257000       2.47893000       0.22190000
H       -6.14750000      -4.24416000       4.20626000       0.21547000
H       -8.60983000      -4.05278000       3.89311000       0.21218000
H       -9.50785000      -2.97327000       1.83696000       0.21177000
H       -7.94862000      -2.09308000       0.11978000       0.21916000
H       -5.00675000       3.47481000      -3.15990000       0.23149000
H       -3.74942000       2.59416000      -2.29275000       0.23008000
H       -3.58864000       2.91157000      -4.02288000       0.22432000
H       -9.12756000      -0.27594000      -2.82704000       0.22763000
H       -8.19280000      -1.59113000      -2.07315000       0.23980000
H       -8.26301000      -0.01987000      -1.30767000       0.21945000
H       -3.85893000      -1.61702000      -6.14622000       0.22424000
H       -4.91286000      -2.78366000      -5.35207000       0.26164000
H       -5.52327000      -1.79854000      -6.70218000       0.22236000
H       -3.27811000      -0.44274000      -0.45689000       0.47138000
H       -2.30406000       0.40341000      -2.59485000       0.22978000
C       -6.62388000      -4.79099000      -1.12171000      -0.31603000
C       -7.89353000      -4.62184000      -1.67369000      -0.17872000
C       -6.46018000      -5.61808000      -0.01183000      -0.16601000
C       -8.99776000      -5.23983000      -1.10207000      -0.27989000
H       -8.02281000      -3.99449000      -2.54844000       0.22418000
C       -7.55747000      -6.24124000       0.56628000      -0.26948000
H       -5.47100000      -5.74409000       0.41286000       0.24340000
C       -8.86040000      -6.05177000       0.05056000       0.21775000
H       -9.97100000      -5.07727000      -1.54893000       0.22014000
H       -7.39633000      -6.85285000       1.44459000       0.22456000
H        1.07021000       0.00732000       0.17390000       0.24232000
O        0.17727000      -2.30527000       0.23371000      -0.55996000
C       -0.44860000      -3.60274000       0.17486000      -0.22761000
H       -1.13805000      -3.73592000       1.01362000       0.18450000
H       -1.00300000      -3.71854000      -0.76029000       0.21475000
H        0.37292000      -4.31787000       0.23648000       0.18558000
O        0.18125000       2.25490000       0.47279000      -0.56686000
C       -0.39596000       3.55601000       0.61233000      -0.22154000
H       -1.14506000       3.56541000       1.41061000       0.18779000
H        0.43405000       4.21978000       0.85977000       0.19169000
H       -0.86868000       3.87707000      -0.31993000       0.18224000
C        1.78874000       1.52195000      -2.48582000      -0.16691000
C       -0.40543000       2.46958000      -2.83661000      -0.19636000
C        2.36560000       2.77342000      -2.64447000      -0.14675000
H        2.41908000       0.66327000      -2.27278000       0.23155000
C        0.15951000       3.72751000      -2.99940000      -0.15364000
H       -1.48010000       2.36476000      -2.90157000       0.22480000
C        1.55156000       3.89180000      -2.90050000      -0.19081000
H        3.44087000       2.89778000      -2.56911000       0.23736000
H       -0.46902000       4.58956000      -3.19977000       0.23365000
H        0.53120000      -0.82627000      -2.41295000       0.26114000
O       -1.06617000      -2.54358000      -2.81115000      -0.42465000
C       -7.46020000      -2.12303000      -4.62297000      -0.62857000
H       -7.55455000      -2.11404000      -5.71425000       0.22580000
H       -7.00336000      -3.07248000      -4.33093000       0.27313000
H       -8.46625000      -2.06881000      -4.20705000       0.21897000
C       -6.64737000       2.03572000      -1.70824000      -0.59853000
H       -5.80420000       2.37330000      -1.09975000       0.22442000
H       -7.08348000       2.92525000      -2.18071000       0.23342000
H       -7.39430000       1.63157000      -1.02822000       0.22569000
C       -3.26836000       0.62105000      -5.26362000      -0.60163000
H       -2.62833000      -0.25906000      -5.17297000       0.23722000
H       -3.47414000       0.77845000      -6.32938000       0.23286000
H       -2.68630000       1.46710000      -4.90334000       0.22014000
C        2.13334000       5.19064000      -3.05838000       0.32310000
N        2.60054000       6.24888000      -3.18471000      -0.36170000
N       -9.96423000      -6.63989000       0.65551000      -0.50322000
C       -9.81094000      -7.19962000       1.99061000      -0.36495000
C      -11.29446000      -6.22049000       0.24812000      -0.36339000
H      -10.77749000      -7.57064000       2.33747000       0.20610000
H       -9.11720000      -8.04836000       1.98301000       0.20079000
H       -9.43794000      -6.45893000       2.71528000       0.19072000
H      -11.46795000      -5.14237000       0.40336000       0.18431000
H      -11.46788000      -6.44278000      -0.81117000       0.20001000
H      -12.03853000      -6.77510000       0.82345000       0.20748000
