116
R3TS2minorsOMe.xyz  (col5 = NBO charge)
O       -3.04727000      -1.87991000      -2.90114000      -0.41859000
N       -1.79403000      -1.57269000      -2.75225000       0.47840000
C       -1.41444000      -0.25984000      -2.62463000      -0.16534000
C       -0.09037000       0.05967000      -2.34206000      -0.07554000
C        0.47117000       1.39691000      -2.54849000      -0.12975000
O       -1.88196000       1.50212000      -0.06326000      -0.70766000
C       -0.69345000       1.25707000       0.15106000       0.78939000
C        0.00104000       0.00044000      -0.00743000      -0.50596000
C       -0.67235000      -1.26232000       0.11506000       0.79125000
O       -1.89475000      -1.45135000       0.04725000      -0.71611000
Ru      -4.80630000      -0.68944000      -2.66716000       0.15755000
S       -5.16175000      -3.84003000      -1.92338000       2.25029000
O       -5.22235000      -3.84066000      -3.39961000      -0.95152000
O       -3.99578000      -4.42518000      -1.23617000      -0.94575000
N       -4.17778000      -0.05211000      -0.75319000      -0.74062000
N       -5.50582000      -2.28901000      -1.41033000      -0.87513000
C       -5.18387000      -0.54770000       0.22129000      -0.01978000
C       -5.18892000      -2.07803000       0.02939000      -0.06181000
C       -4.97645000      -0.07017000       1.64538000      -0.05165000
C       -6.09437000       0.33882000       2.38508000      -0.20111000
C       -5.96288000       0.75670000       3.70912000      -0.21279000
C       -4.70236000       0.77966000       4.30964000      -0.21516000
C       -3.58313000       0.37729000       3.57801000      -0.20671000
C       -3.71569000      -0.04888000       2.25546000      -0.20657000
C       -6.17396000      -2.71974000       0.99182000      -0.02884000
C       -5.70207000      -3.39084000       2.12345000      -0.20432000
C       -6.59227000      -3.94805000       3.04341000      -0.20769000
C       -7.96866000      -3.84147000       2.83741000      -0.22128000
C       -8.44803000      -3.16856000       1.70974000      -0.20932000
C       -7.55532000      -2.60833000       0.79819000      -0.21683000
C       -4.91578000       1.38829000      -3.63356000       0.00012000
C       -6.13124000       1.06562000      -2.90364000       0.01405000
C       -6.87869000      -0.10286000      -3.24217000       0.01061000
C       -6.44442000      -0.93006000      -4.35018000       0.05033000
C       -5.18770000      -0.70290000      -4.94875000       0.00354000
C       -4.41066000       0.47446000      -4.59322000       0.01598000
C       -4.19510000       2.67582000      -3.28023000      -0.60594000
C       -8.13010000      -0.51171000      -2.50149000      -0.60234000
C       -4.67534000      -1.71644000      -5.94655000      -0.61057000
H       -4.03493000       0.95159000      -0.64949000       0.41547000
H       -6.16010000      -0.18183000      -0.11249000       0.21303000
H       -4.17926000      -2.43862000       0.26315000       0.24471000
H       -7.07939000       0.30613000       1.92533000       0.21319000
H       -6.84239000       1.06343000       4.26928000       0.21579000
H       -4.59391000       1.10827000       5.34009000       0.21528000
H       -2.59799000       0.39228000       4.03729000       0.21657000
H       -2.84387000      -0.36211000       1.69615000       0.24426000
H       -4.62992000      -3.47708000       2.27928000       0.22269000
H       -6.20988000      -4.47007000       3.91678000       0.21584000
H       -8.66391000      -4.28221000       3.54737000       0.21339000
H       -9.51828000      -3.09110000       1.53516000       0.21269000
H       -7.92243000      -2.11222000      -0.09336000       0.21851000
H       -4.90874000       3.50052000      -3.19381000       0.22943000
H       -3.66300000       2.60477000      -2.32342000       0.23173000
H       -3.47059000       2.96325000      -4.04139000       0.22429000
H       -9.02839000      -0.27960000      -3.08754000       0.22716000
H       -8.10630000      -1.58495000      -2.30223000       0.23930000
H       -8.22619000      -0.01671000      -1.53615000       0.21901000
H       -3.65294000      -1.51774000      -6.26124000       0.22460000
H       -4.69641000      -2.71178000      -5.49366000       0.26162000
H       -5.30396000      -1.72874000      -6.84607000       0.22134000
H       -3.25318000      -0.45730000      -0.52355000       0.47217000
H       -2.22622000       0.44552000      -2.61830000       0.22713000
C       -6.59163000      -4.79771000      -1.37656000      -0.26401000
C       -7.82600000      -4.61729000      -1.99965000      -0.20045000
C       -6.46367000      -5.67065000      -0.29780000      -0.18608000
C       -8.94475000      -5.29034000      -1.51355000      -0.21859000
H       -7.90891000      -3.95760000      -2.85532000       0.22614000
C       -7.59010000      -6.33652000       0.17975000      -0.20610000
H       -5.49366000      -5.79990000       0.16757000       0.24555000
C       -8.84778000      -6.14589000      -0.40721000      -0.01638000
H       -9.90929000      -5.14673000      -1.99577000       0.21417000
H       -7.49405000      -7.00147000       1.03461000       0.21836000
C      -10.07086000      -6.81835000       0.16870000      -0.60649000
H      -10.41619000      -6.28768000       1.06638000       0.22039000
H      -10.90051000      -6.83355000      -0.54592000       0.21281000
H       -9.85952000      -7.85163000       0.46645000       0.21854000
H        1.06625000       0.00831000       0.18638000       0.24295000
O        0.17999000      -2.30322000       0.24342000      -0.55967000
C       -0.43979000      -3.60208000       0.16892000      -0.22801000
H       -1.13402000      -3.74604000       1.00214000       0.18287000
H       -0.98571000      -3.71062000      -0.77207000       0.21644000
H        0.38418000      -4.31469000       0.23005000       0.18457000
O        0.17779000       2.24789000       0.50276000      -0.56504000
C       -0.39176000       3.55317000       0.61699000      -0.22171000
H       -1.18461000       3.56932000       1.37186000       0.18645000
H        0.43104000       4.20612000       0.91409000       0.18928000
H       -0.80532000       3.88338000      -0.34019000       0.18305000
C        1.86384000       1.58762000      -2.44096000      -0.14392000
C       -0.31740000       2.51988000      -2.83738000      -0.16845000
C        2.43766000       2.83529000      -2.61253000      -0.25051000
H        2.49662000       0.73596000      -2.20520000       0.22385000
C        0.24407000       3.78415000      -3.01534000      -0.30628000
H       -1.39208000       2.41749000      -2.91509000       0.21641000
C        1.63051000       3.94939000      -2.89817000       0.34573000
H        3.50938000       2.98242000      -2.52682000       0.23319000
H       -0.40286000       4.62438000      -3.24011000       0.22628000
H        0.61022000      -0.76762000      -2.37215000       0.25822000
O       -0.96657000      -2.49459000      -2.79872000      -0.44281000
C       -7.29056000      -2.07536000      -4.85019000      -0.62781000
H       -7.37223000      -2.02693000      -5.94179000       0.22566000
H       -6.82541000      -3.02909000      -4.58790000       0.27165000
H       -8.30226000      -2.05052000      -4.44573000       0.21875000
C       -6.59162000       2.03486000      -1.83577000      -0.59800000
H       -5.76745000       2.36382000      -1.19734000       0.22441000
H       -7.01846000       2.93143000      -2.30355000       0.23232000
H       -7.35518000       1.61495000      -1.18432000       0.22528000
C       -3.09204000       0.69276000      -5.30213000      -0.60262000
H       -2.45356000      -0.18770000      -5.20549000       0.23957000
H       -3.26343000       0.87045000      -6.37094000       0.23084000
H       -2.52319000       1.53146000      -4.90580000       0.22157000
O        2.28787000       5.13266000      -3.04438000      -0.54484000
C        1.52488000       6.29990000      -3.30846000      -0.22022000
H        0.80963000       6.50529000      -2.50015000       0.17782000
H        2.24276000       7.11960000      -3.37202000       0.20052000
H        0.98049000       6.22043000      -4.25940000       0.17836000
