113
R3TS2minorsNO2cNO2.xyz  (col5 = NBO charge)
O       -3.24210000      -1.87773000      -2.76357000      -0.39998000
N       -1.97986000      -1.61424000      -2.70946000       0.49002000
C       -1.55413000      -0.30071000      -2.60732000      -0.14640000
C       -0.21721000      -0.02066000      -2.41396000      -0.09683000
C        0.36906000       1.30897000      -2.60389000      -0.04956000
O       -1.88418000       1.49630000      -0.05625000      -0.70994000
C       -0.68966000       1.25991000       0.13781000       0.78201000
C        0.00057000      -0.00058000       0.00438000      -0.50622000
C       -0.67189000      -1.26092000       0.11027000       0.78387000
O       -1.89632000      -1.44875000       0.04647000      -0.72083000
Ru      -4.97059000      -0.64877000      -2.42398000       0.15521000
S       -5.31995000      -3.79223000      -1.66729000       2.25620000
O       -5.48243000      -3.79396000      -3.13419000      -0.94527000
O       -4.13490000      -4.41626000      -1.05372000      -0.93986000
N       -4.22345000      -0.02030000      -0.55142000      -0.74047000
N       -5.60219000      -2.24792000      -1.12543000      -0.87800000
C       -5.16329000      -0.51637000       0.48836000      -0.02002000
C       -5.18928000      -2.04409000       0.29315000      -0.06136000
C       -4.84941000      -0.04758000       1.89494000      -0.05415000
C       -5.89603000       0.43091000       2.69386000      -0.20059000
C       -5.66261000       0.84611000       4.00495000      -0.21067000
C       -4.37046000       0.79454000       4.53133000      -0.21214000
C       -3.32134000       0.32113000       3.74022000      -0.20516000
C       -3.55623000      -0.10123000       2.43117000      -0.20663000
C       -6.11239000      -2.69222000       1.30958000      -0.03604000
C       -5.57373000      -3.42337000       2.37202000      -0.20387000
C       -6.40740000      -4.01221000       3.32508000      -0.20718000
C       -7.79287000      -3.87571000       3.22279000      -0.21652000
C       -8.33844000      -3.13544000       2.16935000      -0.21102000
C       -7.50198000      -2.54509000       1.22392000      -0.21919000
C       -5.09283000       1.42778000      -3.38638000       0.00221000
C       -6.26361000       1.13713000      -2.57597000       0.02123000
C       -7.05963000      -0.01552000      -2.85661000       0.01224000
C       -6.72514000      -0.85293000      -3.99198000       0.05216000
C       -5.51173000      -0.65374000      -4.68212000       0.00486000
C       -4.67764000       0.49731000      -4.37378000       0.01906000
C       -4.31686000       2.69772000      -3.09068000      -0.60805000
C       -8.26869000      -0.38847000      -2.03111000      -0.60222000
C       -5.10230000      -1.67191000      -5.72217000      -0.61156000
H       -4.07779000       0.98363000      -0.45614000       0.41706000
H       -6.15742000      -0.14130000       0.22543000       0.21419000
H       -4.16841000      -2.41158000       0.45528000       0.24512000
H       -6.90607000       0.45900000       2.29136000       0.21272000
H       -6.48750000       1.20873000       4.61244000       0.21733000
H       -4.18284000       1.12039000       5.55101000       0.21686000
H       -2.31260000       0.27772000       4.14262000       0.21771000
H       -2.73900000      -0.47021000       1.82498000       0.24103000
H       -4.49528000      -3.53734000       2.44415000       0.22347000
H       -5.97490000      -4.58455000       4.14141000       0.21855000
H       -8.44488000      -4.34632000       3.95349000       0.21917000
H       -9.41660000      -3.03074000       2.07936000       0.21632000
H       -7.92349000      -1.99547000       0.38893000       0.21785000
H       -5.00207000       3.53956000      -2.95596000       0.23285000
H       -3.71876000       2.61589000      -2.17444000       0.23259000
H       -3.64498000       2.96730000      -3.90493000       0.22544000
H       -9.19695000      -0.14798000      -2.56414000       0.23020000
H       -8.25374000      -1.45876000      -1.81568000       0.23702000
H       -8.29626000       0.12437000      -1.07097000       0.22046000
H       -4.13645000      -1.45271000      -6.17257000       0.22440000
H       -5.04118000      -2.66054000      -5.25676000       0.26150000
H       -5.84092000      -1.71727000      -6.53152000       0.22442000
H       -3.28458000      -0.42233000      -0.38238000       0.47253000
H       -2.34909000       0.42182000      -2.55378000       0.23185000
C       -6.74218000      -4.72542000      -1.03505000      -0.21155000
C       -8.00527000      -4.50967000      -1.59195000      -0.20487000
C       -6.56358000      -5.60672000       0.03023000      -0.19187000
C       -9.11492000      -5.14498000      -1.04788000      -0.18694000
H       -8.11503000      -3.84496000      -2.43933000       0.23785000
C       -7.66980000      -6.24291000       0.58732000      -0.17160000
H       -5.57001000      -5.75909000       0.43306000       0.25687000
C       -8.92904000      -5.99073000       0.04719000       0.06316000
H      -10.11143000      -4.99328000      -1.44350000       0.25175000
H       -7.57303000      -6.90693000       1.43641000       0.25632000
H        1.07111000       0.00646000       0.16410000       0.24255000
O        0.18019000      -2.30532000       0.21460000      -0.56020000
C       -0.44177000      -3.60354000       0.15698000      -0.22689000
H       -1.12671000      -3.74063000       0.99892000       0.18447000
H       -0.99999000      -3.71984000      -0.77606000       0.21126000
H        0.38153000      -4.31692000       0.21333000       0.18690000
O        0.18732000       2.26019000       0.44113000      -0.56678000
C       -0.38845000       3.56170000       0.58635000      -0.22176000
H       -1.12008000       3.57387000       1.40058000       0.18829000
H        0.44581000       4.22718000       0.81368000       0.19222000
H       -0.88121000       3.87859000      -0.33682000       0.18202000
C        1.76838000       1.45569000      -2.54455000      -0.16281000
C       -0.41536000       2.45414000      -2.84091000      -0.19500000
C        2.36947000       2.69632000      -2.70231000      -0.17914000
H        2.38454000       0.58188000      -2.35375000       0.23332000
C        0.17075000       3.70272000      -3.00174000      -0.18455000
H       -1.49285000       2.37213000      -2.88456000       0.22565000
C        1.55882000       3.81039000      -2.92631000       0.06674000
H        3.44420000       2.81844000      -2.65200000       0.25557000
H       -0.42370000       4.59032000      -3.17997000       0.25225000
H        0.46451000      -0.86317000      -2.45077000       0.26157000
O       -1.17989000      -2.54900000      -2.82291000      -0.41525000
C       -7.63239000      -1.97476000      -4.43402000      -0.62667000
H       -7.84904000      -1.87185000      -5.50366000       0.22926000
H       -7.14518000      -2.94033000      -4.27961000       0.26757000
H       -8.58661000      -1.97132000      -3.90858000       0.22019000
C       -6.62670000       2.11857000      -1.48233000      -0.59941000
H       -5.75033000       2.45077000      -0.92024000       0.22525000
H       -7.08727000       3.01199000      -1.92306000       0.23588000
H       -7.33399000       1.71014000      -0.76367000       0.22619000
C       -3.40111000       0.67975000      -5.16493000      -0.60325000
H       -2.79723000      -0.22959000      -5.13696000       0.23739000
H       -3.63538000       0.89642000      -6.21433000       0.23492000
H       -2.77275000       1.48368000      -4.78712000       0.22147000
N        2.18134000       5.13086000      -3.08604000       0.50009000
O        1.43670000       6.09602000      -3.26666000      -0.39637000
O        3.40923000       5.19572000      -3.02762000      -0.38984000
N      -10.10647000      -6.62021000       0.66433000       0.50298000
O       -9.92311000      -7.34344000       1.64336000      -0.38928000
O      -11.20935000      -6.37926000       0.17099000      -0.39588000
