118
R3TS20majorsCNcNO2.xyz  (col5 = NBO charge)
O       -1.81273000      -2.17384000       3.25968000      -0.40494000
N       -2.37439000      -1.10225000       3.00805000       0.49025000
C       -1.65094000       0.05396000       2.71859000      -0.13761000
C       -0.29017000       0.00871000       2.53645000      -0.07269000
C        0.60402000       1.16310000       2.62151000      -0.06063000
O       -1.89048000      -1.52041000       0.10696000      -0.72399000
C       -0.69132000      -1.27940000      -0.07458000       0.78227000
C       -0.03720000      -0.00670000      -0.02498000      -0.53075000
C       -0.69235000       1.25949000      -0.13679000       0.77824000
O       -1.89939000       1.52629000      -0.03102000      -0.74088000
Ru      -5.24943000       0.34209000       2.14677000       0.18799000
S       -7.49565000      -1.98613000       2.00013000       2.25717000
O       -7.52943000      -1.83508000       3.46514000      -0.94238000
O       -8.62277000      -1.40147000       1.22325000      -0.97804000
N       -4.16725000      -0.04123000       0.37835000      -0.74981000
N       -6.03154000      -1.48596000       1.46322000      -0.88023000
C       -4.88386000      -0.87602000      -0.63088000      -0.02320000
C       -5.64223000      -1.99322000       0.12144000      -0.04741000
C       -5.71221000       0.01078000      -1.54262000      -0.04316000
C       -5.01895000       0.79866000      -2.47642000      -0.21033000
C       -5.70013000       1.66667000      -3.32737000      -0.20968000
C       -7.09486000       1.75100000      -3.26532000      -0.21840000
C       -7.79152000       0.96294000      -2.34881000      -0.20997000
C       -7.10597000       0.09994000      -1.48722000      -0.22434000
C       -4.82836000      -3.28640000       0.18775000      -0.03658000
C       -4.92337000      -4.20011000      -0.86897000      -0.21719000
C       -4.22598000      -5.40922000      -0.83340000      -0.21543000
C       -3.42182000      -5.71802000       0.26695000      -0.22492000
C       -3.31777000      -4.80521000       1.31879000      -0.21412000
C       -4.01590000      -3.59858000       1.27963000      -0.20414000
C       -4.64757000       2.54130000       2.61842000      -0.01078000
C       -4.78116000       1.82186000       3.83488000       0.04313000
C       -6.02353000       1.14435000       4.16063000      -0.03003000
C       -7.12790000       1.26929000       3.28737000       0.08082000
C       -6.94346000       1.82137000       1.96757000      -0.00033000
C       -5.68617000       2.42310000       1.62460000       0.04109000
C       -3.44622000       3.40364000       2.29287000      -0.62810000
C       -6.16210000       0.37090000       5.45303000      -0.60742000
C       -8.15150000       1.91710000       1.06716000      -0.61540000
H       -3.29725000      -0.55023000       0.59692000       0.45940000
H       -4.10790000      -1.34945000      -1.24312000       0.23835000
H       -6.53338000      -2.22167000      -0.47535000       0.22445000
H       -3.93320000       0.73562000      -2.52409000       0.22479000
H       -5.14676000       2.26972000      -4.04215000       0.22023000
H       -7.63204000       2.42116000      -3.93100000       0.21925000
H       -8.87523000       1.02253000      -2.29113000       0.22027000
H       -7.66600000      -0.47892000      -0.76066000       0.24180000
H       -5.56770000      -3.97668000      -1.71752000       0.21359000
H       -4.32591000      -6.11540000      -1.65358000       0.21713000
H       -2.88998000      -6.66510000       0.30540000       0.21612000
H       -2.69492000      -5.02737000       2.18007000       0.21702000
H       -3.96058000      -2.91314000       2.11313000       0.24156000
H       -3.78352000       4.34926000       1.85624000       0.23180000
H       -2.87423000       3.65865000       3.18527000       0.21784000
H       -2.77870000       2.93021000       1.56457000       0.25718000
H       -6.64193000       0.98210000       6.22895000       0.22297000
H       -6.76038000      -0.52512000       5.28574000       0.25303000
H       -5.19564000       0.04353000       5.83486000       0.22526000
H       -7.91233000       2.30985000       0.08274000       0.22880000
H       -8.62283000       0.94099000       0.93977000       0.25383000
H       -8.88605000       2.59065000       1.52814000       0.22441000
H       -3.79492000       0.79953000      -0.06313000       0.43735000
H       -2.26448000       0.92807000       2.59476000       0.23550000
C       -7.53356000      -3.75380000       1.64482000      -0.23610000
C       -6.75357000      -4.60845000       2.42542000      -0.17371000
C       -8.27465000      -4.22148000       0.55894000      -0.19666000
C       -6.67462000      -5.95462000       2.08637000      -0.17453000
H       -6.19118000      -4.21232000       3.26274000       0.25398000
C       -8.20345000      -5.56939000       0.21709000      -0.18324000
H       -8.88499000      -3.52953000      -0.01038000       0.25286000
C       -7.38891000      -6.40663000       0.97745000       0.07365000
H       -6.05279000      -6.64405000       2.64211000       0.25819000
H       -8.74723000      -5.97247000      -0.62786000       0.25547000
H        1.03423000      -0.00513000      -0.17448000       0.23747000
O        0.22501000       2.25617000      -0.32244000      -0.58224000
C       -0.28527000       3.59247000      -0.43502000      -0.03969000
H       -1.02811000       3.63357000      -1.24004000       0.18665000
H       -0.79261000       3.86963000       0.49625000       0.17417000
O        0.20977000      -2.27532000      -0.30344000      -0.58035000
C       -0.26080000      -3.63898000      -0.23266000      -0.04805000
H        0.27971000      -4.16545000      -1.02504000       0.18327000
H       -1.33201000      -3.67297000      -0.43938000       0.21066000
H        0.17559000      -0.97002000       2.58805000       0.25723000
C        1.98845000       0.97407000       2.44245000      -0.16100000
C        0.13912000       2.46264000       2.89069000      -0.19159000
C        2.87163000       2.04070000       2.49576000      -0.14788000
H        2.36218000      -0.02353000       2.23041000       0.23263000
C        1.01267000       3.53992000       2.94687000      -0.15152000
H       -0.91588000       2.63314000       3.05514000       0.22285000
C        2.38784000       3.33958000       2.74181000      -0.18647000
H        3.93432000       1.88382000       2.34324000       0.23842000
H        0.63984000       4.53933000       3.14715000       0.23462000
O       -3.65490000      -1.02813000       3.10747000      -0.42290000
C       -8.52062000       0.87806000       3.71104000      -0.61494000
H       -9.09235000       1.80845000       3.84123000       0.22589000
H       -9.03134000       0.27142000       2.96455000       0.25271000
H       -8.53747000       0.33044000       4.64892000       0.23508000
C       -5.47131000       3.05747000       0.26893000      -0.61541000
H       -5.77306000       4.11314000       0.29690000       0.23257000
H       -4.42264000       3.01944000      -0.03266000       0.23279000
H       -6.04705000       2.56093000      -0.50963000       0.24138000
C       -3.66367000       1.75156000       4.85150000      -0.60543000
H       -4.00165000       2.15607000       5.81210000       0.23565000
H       -3.36498000       0.71267000       5.01232000       0.24001000
H       -2.77419000       2.30147000       4.55084000       0.21904000
C        0.05226000      -4.21975000       1.13805000      -0.61911000
H       -0.24709000      -5.27306000       1.17846000       0.21100000
H        1.12530000      -4.15389000       1.34960000       0.20163000
H       -0.49816000      -3.67658000       1.91114000       0.22100000
C        0.90098000       4.50026000      -0.70746000      -0.60222000
H        0.56830000       5.53958000      -0.80532000       0.21042000
H        1.62539000       4.44289000       0.11065000       0.20907000
H        1.40594000       4.20759000      -1.63347000       0.21156000
C        3.28670000       4.45335000       2.77691000       0.32049000
N        4.01063000       5.36414000       2.79858000      -0.35682000
N       -7.26111000      -7.82086000       0.58206000       0.50384000
O       -7.88573000      -8.19509000      -0.41031000      -0.39048000
O       -6.53261000      -8.54093000       1.26327000      -0.38593000
