127
R3TS20majorsOMecNMe2.xyz  (col5 = NBO charge)
O       -0.69224000      -1.92350000       3.15437000      -0.51046000
N       -1.12537000      -0.77457000       3.41754000       0.44107000
C       -0.53415000       0.35208000       2.90215000      -0.19586000
C        0.58457000       0.27308000       2.05786000      -0.10769000
C        1.49231000       1.42723000       1.88551000      -0.10736000
O       -1.90192000      -1.45302000       0.00590000      -0.68847000
C       -0.68940000      -1.27758000       0.03667000       0.81183000
C        0.00283000       0.00268000      -0.01764000      -0.48980000
C       -0.72763000       1.22380000      -0.25601000       0.80584000
O       -1.89462000       1.48339000       0.07068000      -0.71486000
Ru      -4.82274000       0.70484000       3.21549000       0.25045000
S       -7.11699000      -1.45787000       3.84439000       2.25197000
O       -6.92048000      -1.04309000       5.24273000      -0.94089000
O       -8.28012000      -0.90674000       3.10440000      -0.96675000
N       -3.77978000      -0.15463000       1.57824000      -0.77321000
N       -5.69377000      -1.08845000       3.01772000      -0.84843000
C       -4.69758000      -1.02176000       0.78145000      -0.03232000
C       -5.44455000      -1.90869000       1.79665000      -0.05153000
C       -5.54675000      -0.16470000      -0.13786000      -0.04001000
C       -4.90223000       0.41704000      -1.24149000      -0.20299000
C       -5.60761000       1.22825000      -2.12848000      -0.21124000
C       -6.97268000       1.46010000      -1.93094000      -0.22185000
C       -7.61956000       0.87840000      -0.83939000      -0.21609000
C       -6.91039000       0.07429000       0.05905000      -0.22294000
C       -4.64482000      -3.18117000       2.06833000      -0.03481000
C       -4.91750000      -4.32773000       1.31175000      -0.21571000
C       -4.16505000      -5.48983000       1.48320000      -0.21449000
C       -3.11883000      -5.51482000       2.41040000      -0.23096000
C       -2.83716000      -4.37114000       3.16025000      -0.20148000
C       -3.60110000      -3.21380000       2.99783000      -0.22085000
C       -3.84176000       2.85996000       3.25392000       0.00437000
C       -3.80251000       2.32379000       4.56217000       0.03131000
C       -5.01939000       1.80242000       5.16558000       0.00943000
C       -6.26669000       1.98159000       4.51490000       0.02693000
C       -6.27544000       2.35304000       3.12308000       0.04505000
C       -5.04923000       2.74919000       2.47692000       0.01325000
C       -2.63329000       3.47760000       2.58761000      -0.62701000
C       -4.94499000       1.14851000       6.52615000      -0.61071000
C       -7.60994000       2.41063000       2.41890000      -0.61626000
H       -3.07187000      -0.76765000       1.98739000       0.42581000
H       -4.07480000      -1.66456000       0.15647000       0.25837000
H       -6.39501000      -2.20849000       1.34109000       0.22868000
H       -3.83903000       0.24072000      -1.38427000       0.23550000
H       -5.09444000       1.67560000      -2.97572000       0.21771000
H       -7.52697000       2.08695000      -2.62472000       0.21698000
H       -8.67940000       1.05550000      -0.67466000       0.21879000
H       -7.42463000      -0.34007000       0.91995000       0.24102000
H       -5.73436000      -4.31544000       0.59415000       0.21391000
H       -4.39606000      -6.37414000       0.89378000       0.21203000
H       -2.52221000      -6.41529000       2.53720000       0.21176000
H       -2.00516000      -4.35246000       3.85717000       0.22432000
H       -3.36655000      -2.34227000       3.59836000       0.24779000
H       -2.92723000       4.39510000       2.06740000       0.22692000
H       -1.86306000       3.75004000       3.30850000       0.21733000
H       -2.19508000       2.80930000       1.84092000       0.25948000
H       -5.03265000       1.89529000       7.32703000       0.22281000
H       -5.73504000       0.40761000       6.63576000       0.25162000
H       -3.99527000       0.62615000       6.65282000       0.23285000
H       -7.51578000       2.62818000       1.35833000       0.22879000
H       -8.14551000       1.46440000       2.52630000       0.25309000
H       -8.22100000       3.20051000       2.87503000       0.22661000
H       -3.22829000       0.45804000       0.96101000       0.46064000
H       -1.02705000       1.26462000       3.18738000       0.21598000
C       -7.23112000      -3.22518000       3.79927000      -0.35545000
C       -6.37978000      -3.97732000       4.61474000      -0.15023000
C       -8.05119000      -3.85922000       2.86528000      -0.16949000
C       -6.32097000      -5.35217000       4.47172000      -0.26588000
H       -5.74466000      -3.47620000       5.33693000       0.24269000
C       -7.99707000      -5.23860000       2.71868000      -0.28195000
H       -8.71732000      -3.26494000       2.24820000       0.24034000
C       -7.10267000      -6.01856000       3.49437000       0.23548000
H       -5.63007000      -5.90492000       5.09428000       0.22893000
H       -8.63350000      -5.70424000       1.97681000       0.22525000
H        1.00885000      -0.02677000      -0.41738000       0.24780000
O        0.07291000       2.17672000      -0.80108000      -0.56807000
C       -0.46907000       3.50403000      -0.89952000      -0.04191000
H       -1.37098000       3.48417000      -1.52186000       0.18770000
H       -0.76099000       3.84934000       0.09838000       0.18100000
O        0.19240000      -2.29765000       0.17487000      -0.57845000
C       -0.37726000      -3.58485000       0.50333000      -0.04958000
H       -0.67020000      -4.08433000      -0.42842000       0.17692000
H       -1.27066000      -3.43462000       1.10991000       0.21631000
H        1.05722000      -0.70388000       2.02472000       0.25774000
C        2.78114000       1.22042000       1.37521000      -0.15404000
C        1.11761000       2.75149000       2.17860000      -0.18163000
C        3.66528000       2.27433000       1.14854000      -0.29778000
H        3.09712000       0.20796000       1.13530000       0.22104000
C        1.98278000       3.81330000       1.96022000      -0.25450000
H        0.13234000       2.95929000       2.57739000       0.21496000
C        3.26321000       3.58574000       1.43350000       0.33561000
H        4.65101000       2.06433000       0.75006000       0.22826000
H        1.69013000       4.83457000       2.18353000       0.22852000
O       -2.14088000      -0.62062000       4.18376000      -0.53599000
C       -7.58639000       1.79342000       5.22139000      -0.60542000
H       -8.08295000       2.77269000       5.26876000       0.22018000
H       -8.24799000       1.10367000       4.69757000       0.24804000
H       -7.46549000       1.42440000       6.23675000       0.23147000
C       -5.01840000       3.14712000       1.01859000      -0.61548000
H       -5.16745000       4.23135000       0.91789000       0.22490000
H       -4.06491000       2.88919000       0.55429000       0.24269000
H       -5.79227000       2.64324000       0.44310000       0.23771000
C       -2.53289000       2.26185000       5.37884000      -0.61892000
H       -2.71677000       2.61593000       6.39813000       0.22450000
H       -2.17255000       1.22914000       5.41975000       0.26768000
H       -1.73250000       2.86970000       4.95852000       0.21665000
C        0.67621000      -4.36364000       1.26742000      -0.60527000
H        0.28962000      -5.35791000       1.51982000       0.20837000
H        1.59188000      -4.48521000       0.67809000       0.20065000
H        0.91559000      -3.83650000       2.19566000       0.21837000
C        0.61981000       4.38112000      -1.49070000      -0.60415000
H        0.26064000       5.41123000      -1.59450000       0.20982000
H        1.50018000       4.38062000      -0.84075000       0.21443000
H        0.91660000       4.01471000      -2.47892000       0.20867000
O        4.02797000       4.69790000       1.23592000      -0.54914000
C        5.32815000       4.53048000       0.69186000      -0.22061000
H        5.29242000       4.07084000      -0.30533000       0.17871000
H        5.75137000       5.53357000       0.61173000       0.19851000
H        5.96496000       3.91985000       1.34646000       0.17865000
N       -6.98655000      -7.38203000       3.30296000      -0.49452000
C       -7.64190000      -7.99618000       2.15928000      -0.36438000
C       -5.87013000      -8.08911000       3.91817000      -0.36676000
H       -7.44303000      -9.06935000       2.16459000       0.20882000
H       -8.72883000      -7.86281000       2.21071000       0.20102000
H       -7.29010000      -7.58188000       1.20099000       0.18979000
H       -4.90099000      -7.65787000       3.62815000       0.19842000
H       -5.94499000      -8.06804000       5.01197000       0.20039000
H       -5.89451000      -9.13522000       3.60773000       0.20733000
