91
R5TS18majorsNO2.xyz  (col5 = NBO charge)
O       -1.03018000       2.33763000      -2.79926000      -0.49178000
N       -1.54911000       1.25422000      -3.16288000       0.46211000
C       -0.92046000       0.04496000      -2.97044000      -0.14942000
C        0.31166000      -0.01521000      -2.34082000      -0.08868000
C        1.15034000      -1.21971000      -2.35639000      -0.05129000
O       -1.88084000       1.50357000       0.02423000      -0.72732000
C       -0.66880000       1.26909000       0.09027000       0.80408000
C       -0.00063000       0.00033000       0.00963000      -0.50730000
C       -0.69452000      -1.25526000       0.13277000       0.79996000
O       -1.88802000      -1.48260000      -0.09296000      -0.72119000
C       -4.07158000      -1.96946000      -4.22610000      -0.17565000
C       -3.80447000      -2.10514000      -2.85484000       0.18402000
C       -3.26651000      -3.30689000      -2.37631000      -0.19565000
C       -3.00561000      -4.35671000      -3.25702000      -0.14771000
C       -3.28651000      -4.24035000      -4.61580000      -0.18110000
C       -3.82266000      -3.03799000      -5.08338000      -0.14089000
N       -3.93328000      -1.05584000      -1.93885000      -0.66940000
C       -4.78639000       0.01400000      -1.95260000       0.37166000
S       -6.25853000       0.05748000      -2.78800000      -0.32906000
C       -2.36954000      -5.60027000      -2.70480000       1.08086000
C       -4.16845000      -2.90411000      -6.54342000       1.07916000
N       -4.31598000       1.01597000      -1.16933000      -0.67711000
C       -5.01140000       2.22481000      -0.78013000      -0.04964000
C       -4.24231000       3.47077000      -1.28096000      -0.01478000
C       -4.91251000       4.77160000      -0.82567000      -0.41628000
C       -5.01771000       4.80852000       0.70786000      -0.38477000
C       -5.78725000       3.59065000       1.23253000      -0.39329000
C       -5.13372000       2.28851000       0.75683000      -0.39729000
N       -4.01849000       3.42851000      -2.78984000      -0.51084000
C       -5.25881000       3.42382000      -3.62907000      -0.38772000
C       -3.07823000       4.49338000      -3.26047000      -0.36301000
O       -2.68726000       1.24171000      -3.74043000      -0.52516000
C        0.63754000      -2.50304000      -2.62448000      -0.18805000
C        1.46618000      -3.61734000      -2.60289000      -0.18098000
C        2.81933000      -3.44540000      -2.31575000       0.06915000
C        3.36477000      -2.18837000      -2.05736000      -0.18130000
C        2.52303000      -1.08555000      -2.07493000      -0.16981000
H       -6.01187000       2.19276000      -1.22010000       0.24381000
H       -4.12830000       2.19136000       1.18665000       0.21915000
H       -5.70961000       1.41573000       1.08205000       0.22529000
H       -5.82998000       3.60970000       2.32760000       0.21634000
H       -6.82593000       3.63524000       0.87481000       0.20039000
H       -4.00656000       4.81752000       1.13893000       0.20074000
H       -5.50356000       5.74111000       1.01668000       0.21470000
H       -5.92142000       4.84085000      -1.25289000       0.21114000
H       -4.34811000       5.64140000      -1.17970000       0.21883000
H       -3.22950000       3.40586000      -0.86927000       0.24255000
H       -3.21917000      -1.06571000      -1.20058000       0.45511000
H       -3.39260000       0.90265000      -0.73548000       0.45253000
H       -4.94822000       3.33588000      -4.67184000       0.22464000
H       -5.80349000       4.35761000      -3.48180000       0.21204000
H       -5.86832000       2.55617000      -3.37026000       0.24619000
H       -2.70963000       4.19866000      -4.24319000       0.23004000
H       -2.23311000       4.55090000      -2.57816000       0.22796000
H       -3.60507000       5.44666000      -3.31864000       0.21038000
H        1.05043000      -0.00387000       0.26658000       0.24524000
H       -3.52534000       2.52039000      -3.01259000       0.48596000
H       -1.49005000      -0.79822000      -3.32558000       0.23605000
H        0.82103000       0.92935000      -2.18685000       0.25768000
H        2.92648000      -0.10062000      -1.85705000       0.23058000
H        4.42162000      -2.09634000      -1.84028000       0.25484000
H        1.07606000      -4.60895000      -2.78623000       0.26054000
H       -0.41940000      -2.64704000      -2.82083000       0.23225000
H       -3.04129000      -3.40228000      -1.31990000       0.25539000
H       -3.08399000      -5.05768000      -5.29633000       0.25292000
H       -4.44423000      -1.03128000      -4.61173000       0.26411000
F       -1.06953000      -5.36538000      -2.34651000      -0.37301000
F       -2.98899000      -6.02995000      -1.58555000      -0.35225000
F       -2.35339000      -6.61519000      -3.58770000      -0.35017000
F       -3.35419000      -3.65634000      -7.31994000      -0.36060000
F       -4.06999000      -1.62582000      -6.96985000      -0.35649000
F       -5.43402000      -3.30944000      -6.79234000      -0.35536000
C       -0.29342000       3.61424000       0.15155000      -0.04704000
C        0.87950000       4.56858000       0.28243000      -0.60234000
H       -0.80931000       3.73445000      -0.80724000       0.18807000
H       -1.02794000       3.75729000       0.95345000       0.18303000
H        0.52971000       5.60609000       0.23789000       0.21000000
H        1.59606000       4.40866000      -0.52948000       0.20943000
H        1.39793000       4.41809000       1.23464000       0.21116000
C       -0.39067000      -3.58706000       0.53057000      -0.04772000
C        0.74017000      -4.52641000       0.90319000      -0.60209000
H       -1.20241000      -3.60569000       1.26575000       0.19031000
H       -0.81114000      -3.84645000      -0.44393000       0.18569000
H        0.35922000      -5.55031000       0.98020000       0.21709000
H        1.18270000      -4.24416000       1.86378000       0.20994000
H        1.52398000      -4.51132000       0.14023000       0.20724000
O        0.23409000       2.28138000       0.21744000      -0.57513000
O        0.15919000      -2.25273000       0.47264000      -0.56906000
N        3.69206000      -4.62661000      -2.25900000       0.49905000
O        4.90225000      -4.43944000      -2.12850000      -0.39285000
O        3.15966000      -5.73451000      -2.33771000      -0.38886000
