87
R5TS18majorsNO2cNO2.xyz  (col5 = NBO charge)
O       -0.78215000       2.49332000      -2.70291000      -0.49222000
N       -1.32841000       1.45576000      -3.14891000       0.45894000
C       -0.78644000       0.20885000      -2.98146000      -0.15148000
C        0.40477000       0.01532000      -2.29586000      -0.09077000
C        1.11791000      -1.27112000      -2.36486000      -0.05220000
O       -1.88038000       1.50055000       0.00364000      -0.72292000
C       -0.67190000       1.26743000       0.11781000       0.80708000
C        0.00329000       0.00146000       0.00202000      -0.50005000
C       -0.69264000      -1.25609000       0.11698000       0.80191000
O       -1.89117000      -1.47822000      -0.07652000      -0.71424000
C       -3.52775000      -1.94637000      -4.37933000      -0.23230000
C       -3.49452000      -2.10914000      -2.98194000       0.21252000
C       -3.00095000      -3.30977000      -2.43237000      -0.23334000
C       -2.49621000      -4.30623000      -3.25245000      -0.18473000
C       -2.50208000      -4.11077000      -4.63486000       0.02710000
C       -3.03452000      -2.95093000      -5.20261000      -0.17224000
N       -3.79054000      -1.08787000      -2.07809000      -0.66909000
C       -4.61453000       0.00331000      -2.20241000       0.36817000
S       -5.96566000       0.06976000      -3.21446000      -0.31955000
N       -4.22567000       0.99377000      -1.36106000      -0.67657000
C       -4.99596000       2.15384000      -0.95910000      -0.04869000
C       -4.23327000       3.45712000      -1.29363000      -0.01521000
C       -4.99134000       4.69763000      -0.80728000      -0.41572000
C       -5.23629000       4.61611000       0.70813000      -0.38500000
C       -6.00355000       3.33869000       1.06835000      -0.39345000
C       -5.26054000       2.09799000       0.56090000      -0.39648000
N       -3.87663000       3.53853000      -2.77230000      -0.50942000
C       -5.03582000       3.56355000      -3.71876000      -0.38689000
C       -2.92777000       4.65400000      -3.07712000      -0.36371000
O       -2.43153000       1.52373000      -3.79738000      -0.54152000
C        0.51578000      -2.43607000      -2.87743000      -0.18836000
C        1.20065000      -3.64433000      -2.91376000      -0.18505000
C        2.50867000      -3.68384000      -2.43170000       0.06248000
C        3.14413000      -2.54716000      -1.93101000      -0.18197000
C        2.44299000      -1.34958000      -1.90033000      -0.16379000
H       -5.94977000       2.12391000      -1.49289000       0.24260000
H       -4.29474000       2.00044000       1.07421000       0.21745000
H       -5.82910000       1.18518000       0.76775000       0.22501000
H       -6.14581000       3.27185000       2.15308000       0.21652000
H       -7.00653000       3.37784000       0.61972000       0.20046000
H       -4.26976000       4.62387000       1.23152000       0.20095000
H       -5.78343000       5.50695000       1.03696000       0.21486000
H       -5.95941000       4.76756000      -1.32028000       0.21083000
H       -4.43057000       5.60848000      -1.04459000       0.21903000
H       -3.25989000       3.39346000      -0.79528000       0.24234000
H       -3.18874000      -1.10788000      -1.24609000       0.45431000
H       -3.34040000       0.87914000      -0.85383000       0.45257000
H       -4.63020000       3.56428000      -4.73213000       0.22478000
H       -5.62571000       4.46661000      -3.55453000       0.21175000
H       -5.63346000       2.66055000      -3.58205000       0.24531000
H       -2.46657000       4.43990000      -4.04138000       0.23116000
H       -2.14626000       4.67402000      -2.32031000       0.22627000
H       -3.46915000       5.60043000      -3.10984000       0.21016000
H        1.04525000      -0.00605000       0.29436000       0.24477000
H       -3.33473000       2.66168000      -3.02485000       0.48497000
H       -1.39473000      -0.57264000      -3.40255000       0.23412000
H        0.99777000       0.89852000      -2.08596000       0.25801000
H        2.91946000      -0.46056000      -1.49679000       0.23039000
H        4.16265000      -2.61969000      -1.57085000       0.25519000
H        0.73713000      -4.54064000      -3.31136000       0.25943000
H       -0.50053000      -2.41429000      -3.24758000       0.23190000
H       -2.98223000      -3.42299000      -1.35476000       0.24553000
H       -3.89315000      -1.01930000      -4.80057000       0.25425000
C       -0.30498000       3.60528000       0.31499000      -0.04737000
C        0.86252000       4.55039000       0.53096000      -0.60269000
H       -0.78315000       3.76604000      -0.65681000       0.19011000
H       -1.06906000       3.71308000       1.09445000       0.18268000
H        0.51461000       5.58941000       0.51993000       0.21022000
H        1.60718000       4.42501000      -0.26136000       0.21052000
H        1.34619000       4.35709000       1.49370000       0.21088000
C       -0.35925000      -3.59783000       0.43307000      -0.04488000
C        0.76956000      -4.51829000       0.85651000      -0.60259000
H       -1.21088000      -3.64345000       1.12003000       0.19164000
H       -0.72073000      -3.84116000      -0.57138000       0.18293000
H        0.42576000      -5.55804000       0.86001000       0.21613000
H        1.12246000      -4.26326000       1.86077000       0.21104000
H        1.61154000      -4.43484000       0.16350000       0.20776000
O        0.21935000       2.26918000       0.34244000      -0.57126000
O        0.17137000      -2.25685000       0.42183000      -0.57066000
N        3.23706000      -4.96249000      -2.43708000       0.50083000
O        4.41122000      -4.95300000      -2.06386000      -0.39301000
O        2.62677000      -5.96521000      -2.80483000      -0.38302000
H       -2.08898000      -5.22232000      -2.84231000       0.25214000
H       -3.02038000      -2.83292000      -6.27928000       0.25270000
N       -1.89308000      -5.12030000      -5.49722000       0.50104000
O       -2.06249000      -5.02193000      -6.71360000      -0.39653000
O       -1.22676000      -6.00917000      -4.95582000      -0.40480000
