85
R5TS18minorsNO2cPh.xyz  (col5 = NBO charge)
O        0.63773000      -3.43548000       2.99599000      -0.48810000
N        0.25943000      -2.25103000       2.82793000       0.45756000
C        1.16061000      -1.27186000       2.49205000      -0.13815000
C        0.71170000       0.01202000       2.20625000      -0.09692000
C        1.62577000       1.15428000       2.07101000      -0.04510000
O       -1.85936000      -1.55450000      -0.05210000      -0.71209000
C       -0.65597000      -1.28083000      -0.09610000       0.80071000
C        0.00496000      -0.00101000      -0.02339000      -0.51530000
C       -0.71233000       1.24650000      -0.13731000       0.79758000
O       -1.90288000       1.45641000       0.11473000      -0.69921000
C        2.91878000       1.03163000       1.53002000      -0.18016000
C        1.17539000       2.42179000       2.47841000      -0.18426000
C        1.98156000       3.54376000       2.33850000      -0.18035000
C        3.25135000       3.39073000       1.78483000       0.06554000
C        3.73651000       2.14374000       1.38611000      -0.18087000
O       -0.97139000      -1.92761000       2.96123000      -0.54635000
N       -2.83619000      -3.86400000       2.97171000      -0.51488000
C       -2.06854000      -5.14003000       2.81616000      -0.37664000
C       -3.86637000      -3.65217000       1.86744000      -0.00502000
C       -4.59391000      -2.29739000       2.01086000      -0.05378000
C       -5.53899000      -2.09993000       0.80755000      -0.39429000
C       -6.54053000      -3.25241000       0.67080000      -0.39449000
C       -5.81294000      -4.59842000       0.57277000      -0.38525000
C       -4.86834000      -4.80877000       1.76844000      -0.41597000
N       -3.64739000      -1.20702000       2.09994000      -0.67985000
C       -3.65407000      -0.21499000       3.03266000       0.37415000
N       -2.88414000       0.84052000       2.64718000      -0.67293000
C       -2.42756000       1.93359000       3.41543000       0.15945000
S       -4.53949000      -0.27968000       4.47908000      -0.34966000
C       -3.34995000      -3.73768000       4.37222000      -0.39009000
H       -5.18922000      -2.28983000       2.92837000       0.24550000
H       -4.93245000      -2.01177000      -0.10446000       0.21116000
H       -6.05443000      -1.14349000       0.94361000       0.22647000
H       -7.17586000      -3.09836000      -0.20904000       0.21590000
H       -7.20732000      -3.26193000       1.54477000       0.20116000
H       -5.22743000      -4.63155000      -0.35689000       0.20131000
H       -6.52882000      -5.42704000       0.52582000       0.21442000
H       -5.46136000      -4.86271000       2.69106000       0.21089000
H       -4.34732000      -5.76608000       1.66035000       0.21851000
H       -3.25670000      -3.60638000       0.95663000       0.23282000
H       -2.63147000       0.89830000       1.65224000       0.44842000
H       -3.01196000      -1.11028000       1.29988000       0.44764000
H       -2.50296000      -3.88963000       5.04396000       0.22381000
H       -4.10901000      -4.50103000       4.55311000       0.21101000
H       -3.75826000      -2.73622000       4.52839000       0.24776000
H       -1.11491000      -5.01289000       3.32934000       0.24518000
H       -1.87839000      -5.32059000       1.75780000       0.21557000
H       -2.64098000      -5.96785000       3.23660000       0.21487000
H        1.02764000       0.00922000      -0.37500000       0.24637000
H       -2.11502000      -3.09020000       2.87925000       0.48903000
H       -0.29701000       0.24517000       2.52343000       0.26356000
H        2.17347000      -1.62791000       2.38301000       0.23319000
H        0.18472000       2.52906000       2.90276000       0.24266000
H        1.63590000       4.52433000       2.64075000       0.25477000
H        4.72867000       2.06911000       0.95862000       0.25340000
H        3.27267000       0.06389000       1.18787000       0.23025000
C       -2.42260000       3.19972000       2.81265000      -0.23482000
C       -1.86972000       4.29151000       3.48306000      -0.21527000
C       -1.32763000       4.13321000       4.76069000      -0.23264000
C       -1.33976000       2.87031000       5.36047000      -0.20612000
C       -1.87812000       1.77039000       4.69433000      -0.22135000
H       -2.83377000       3.30762000       1.81450000       0.23564000
H       -0.89982000       4.98368000       5.28391000       0.21960000
H       -1.87068000       0.78586000       5.14619000       0.23741000
O        0.28648000      -2.26390000      -0.19345000      -0.57372000
O        0.11997000       2.25249000      -0.51055000      -0.56971000
C       -0.18690000      -3.61680000      -0.16749000      -0.04393000
C        1.03049000      -4.52122000      -0.13893000      -0.60683000
H       -0.79599000      -3.75330000       0.73048000       0.17338000
H       -0.82580000      -3.79524000      -1.04050000       0.18719000
H        0.71878000      -5.57212000      -0.14450000       0.20868000
H        1.60742000      -4.33529000       0.77105000       0.22060000
H        1.66633000      -4.34490000      -1.01232000       0.20996000
C       -0.43970000       3.58241000      -0.51149000      -0.04697000
C        0.64888000       4.52945000      -0.98081000      -0.60339000
H       -1.31479000       3.60257000      -1.16946000       0.19128000
H       -0.77824000       3.82327000       0.50190000       0.18570000
H        0.25734000       5.55132000      -1.03200000       0.21409000
H        1.00674000       4.24484000      -1.97546000       0.21077000
H        1.49795000       4.52243000      -0.29130000       0.20719000
N        4.09352000       4.57807000       1.59152000       0.49927000
O        5.25944000       4.40486000       1.23476000      -0.39279000
O        3.58054000       5.68108000       1.79048000      -0.39419000
H       -0.91268000       2.73514000       6.35043000       0.22029000
H       -1.86831000       5.26781000       3.00539000       0.21975000
