90
R5TS18minorsCN.xyz  (col5 = NBO charge)
O        0.58123000      -3.37059000       3.07571000      -0.48633000
N        0.20080000      -2.19283000       2.87097000       0.45752000
C        1.10641000      -1.21480000       2.54782000      -0.13574000
C        0.66605000       0.06374000       2.22789000      -0.09159000
C        1.58575000       1.20217000       2.10653000      -0.05563000
O       -1.85836000      -1.55850000      -0.06279000      -0.71623000
C       -0.65386000      -1.28223000      -0.08401000       0.80116000
C        0.00127000      -0.00065000      -0.02302000      -0.51670000
C       -0.71418000       1.24497000      -0.15003000       0.79988000
O       -1.90046000       1.46298000       0.12566000      -0.70978000
C        2.89877000       1.06832000       1.62081000      -0.18171000
C        1.13113000       2.47723000       2.48100000      -0.18657000
C        1.95624000       3.59014000       2.38550000      -0.14873000
C        3.26541000       3.44388000       1.89938000      -0.18755000
C        3.73179000       2.17263000       1.51591000      -0.14591000
O       -1.03817000      -1.87881000       2.95424000      -0.54920000
N       -2.83798000      -3.88368000       3.00098000      -0.51461000
C       -2.03480000      -5.14488000       2.91445000      -0.37507000
C       -3.82931000      -3.73308000       1.85095000      -0.00728000
C       -4.60856000      -2.40174000       1.92815000      -0.05338000
C       -5.50448000      -2.26487000       0.67981000      -0.39415000
C       -6.46160000      -3.45296000       0.53108000      -0.39441000
C       -5.68777000      -4.77610000       0.50107000      -0.38514000
C       -4.78895000      -4.92423000       1.74065000      -0.41589000
N       -3.70451000      -1.27536000       2.02809000      -0.67238000
C       -3.77591000      -0.27274000       2.93907000       0.36764000
N       -2.99725000       0.79191000       2.57454000      -0.70672000
C       -2.59544000       1.88777000       3.35251000       0.31806000
S       -4.73931000      -0.31377000       4.33344000      -0.33581000
C       -3.41169000      -3.73264000       4.37549000      -0.38862000
H       -5.24408000      -2.39330000       2.81803000       0.24575000
H       -4.86071000      -2.17932000      -0.20643000       0.21228000
H       -6.05592000      -1.32303000       0.76802000       0.22666000
H       -7.06154000      -3.34202000      -0.37940000       0.21679000
H       -7.16594000      -3.46189000       1.37502000       0.20148000
H       -5.06220000      -4.81452000      -0.40188000       0.20142000
H       -6.37411000      -5.62879000       0.44719000       0.21534000
H       -5.41823000      -4.97508000       2.63910000       0.21138000
H       -4.23316000      -5.86566000       1.67911000       0.21943000
H       -3.18584000      -3.68912000       0.96389000       0.23314000
H       -2.69274000       0.84567000       1.59136000       0.45363000
H       -3.03152000      -1.18129000       1.25707000       0.45058000
H       -2.59000000      -3.84268000       5.08567000       0.22484000
H       -4.15751000      -4.51083000       4.54788000       0.21228000
H       -3.85369000      -2.74037000       4.48704000       0.24519000
H       -1.11304000      -4.98560000       3.47372000       0.24517000
H       -1.78344000      -5.34253000       1.87212000       0.21622000
H       -2.61084000      -5.97614000       3.32272000       0.21478000
H        1.02949000       0.00896000      -0.35826000       0.24750000
H       -2.13301000      -3.09321000       2.91045000       0.48799000
H       -0.35321000       0.29970000       2.50694000       0.25765000
H        2.12436000      -1.56687000       2.48277000       0.23455000
H        0.11981000       2.59493000       2.85219000       0.22910000
H        1.58382000       4.56827000       2.66648000       0.24229000
H        4.74084000       2.06589000       1.13127000       0.23661000
H        3.25919000       0.09648000       1.29721000       0.22956000
C       -2.50646000       3.13785000       2.72501000      -0.23238000
C       -1.99646000       4.23234000       3.42275000      -0.15506000
C       -1.59067000       4.11103000       4.75101000      -0.17691000
C       -1.68955000       2.86363000       5.36921000      -0.14284000
C       -2.17529000       1.75293000       4.68263000      -0.21506000
H       -2.80812000       3.23478000       1.68937000       0.25979000
C       -1.79184000       5.53640000       2.70415000       1.07916000
H       -1.19692000       4.96435000       5.28983000       0.25282000
C       -1.29066000       2.71855000       6.81463000       1.07890000
H       -2.21352000       0.78487000       5.16338000       0.25799000
F       -0.53810000       5.60211000       2.16117000      -0.36912000
F       -1.90904000       6.59745000       3.52590000      -0.35054000
F       -2.65493000       5.70053000       1.68140000      -0.35130000
F       -2.33632000       2.93733000       7.64202000      -0.35405000
F       -0.32416000       3.60127000       7.15584000      -0.35882000
F       -0.82391000       1.47886000       7.08314000      -0.35671000
O        0.29189000      -2.26484000      -0.14258000      -0.57301000
O        0.10990000       2.24047000      -0.55566000      -0.56568000
C       -0.17791000      -3.61837000      -0.10338000      -0.04421000
C        1.04125000      -4.51811000      -0.03249000      -0.60687000
H       -0.80542000      -3.74118000       0.78401000       0.17323000
H       -0.79758000      -3.81437000      -0.98639000       0.18753000
H        0.73301000      -5.57005000      -0.02559000       0.20864000
H        1.59837000      -4.31353000       0.88582000       0.22068000
H        1.69486000      -4.35564000      -0.89531000       0.21055000
C       -0.43372000       3.57836000      -0.54212000      -0.04678000
C        0.66324000       4.51539000      -1.00757000      -0.60358000
H       -1.31630000       3.61555000      -1.18889000       0.19171000
H       -0.74928000       3.82095000       0.47476000       0.18211000
H        0.30384000       5.54937000      -0.97497000       0.21651000
H        0.97156000       4.28246000      -2.03171000       0.20944000
H        1.53769000       4.43345000      -0.35534000       0.21053000
C        4.11970000       4.58740000       1.77648000       0.32239000
N        4.81356000       5.51551000       1.67224000      -0.35817000
