85
R5TS3minorcNMe2.xyz  (col5 = NBO charge)
O       -0.59229000      -3.27464000       3.09717000      -0.54626000
N       -0.59296000      -2.02900000       2.87130000       0.43459000
C        0.54967000      -1.40543000       2.48682000      -0.16403000
C        0.51964000      -0.05806000       2.05605000      -0.11579000
C        1.76294000       0.74597000       2.06192000      -0.07676000
O       -1.85493000      -1.54205000      -0.00197000      -0.67649000
C       -0.66756000      -1.28113000      -0.16336000       0.82064000
C        0.01530000      -0.00213000      -0.00463000      -0.48032000
C       -0.70521000       1.24955000      -0.09967000       0.81446000
O       -1.91319000       1.44232000       0.07545000      -0.70722000
C        3.00528000       0.21349000       1.68022000      -0.19367000
C        1.70171000       2.08285000       2.48263000      -0.18972000
C        2.85667000       2.86130000       2.54585000      -0.21215000
C        4.08839000       2.32093000       2.17329000      -0.20722000
C        4.15707000       0.99461000       1.73454000      -0.21004000
O       -1.67303000      -1.34455000       3.01767000      -0.59150000
N       -3.83016000      -2.65274000       2.09972000      -0.52294000
C       -3.27412000      -3.93579000       1.57038000      -0.38127000
C       -4.80494000      -2.00864000       1.13238000      -0.00703000
C       -5.16990000      -0.57508000       1.56444000      -0.05611000
C       -6.05145000       0.07523000       0.47968000      -0.39145000
C       -7.31265000      -0.75283000       0.20265000      -0.39439000
C       -6.95128000      -2.19578000      -0.17243000      -0.38533000
C       -6.06851000      -2.84774000       0.90546000      -0.41415000
N       -3.98212000       0.20985000       1.81624000      -0.67879000
C       -3.74761000       0.94574000       2.94253000       0.37297000
N       -2.75784000       1.86366000       2.75483000      -0.66529000
C       -1.88051000       2.39908000       3.73304000       0.10453000
S       -4.60823000       0.78066000       4.39064000      -0.34109000
C       -4.31253000      -2.83083000       3.50604000      -0.38631000
H       -5.73504000      -0.60216000       2.50047000       0.24460000
H       -5.46064000       0.18402000      -0.44121000       0.20473000
H       -6.30934000       1.08508000       0.81586000       0.22442000
H       -7.90323000      -0.28816000      -0.59571000       0.21371000
H       -7.94569000      -0.75934000       1.10134000       0.20151000
H       -6.41109000      -2.20106000      -1.12986000       0.20012000
H       -7.85609000      -2.79762000      -0.31669000       0.21331000
H       -6.63709000      -2.92093000       1.84174000       0.21049000
H       -5.80857000      -3.86739000       0.60154000       0.21774000
H       -4.23175000      -1.94604000       0.20181000       0.23765000
H       -2.44557000       1.97265000       1.78984000       0.42877000
H       -3.30633000       0.29347000       1.05398000       0.44694000
H       -3.45633000      -3.18325000       4.08248000       0.23392000
H       -5.12361000      -3.56101000       3.52696000       0.20528000
H       -4.62999000      -1.86604000       3.90621000       0.24285000
H       -2.40487000      -4.18173000       2.18091000       0.24770000
H       -2.96140000      -3.77057000       0.54080000       0.22534000
H       -4.03202000      -4.71833000       1.63119000       0.20603000
H        1.02154000       0.02108000      -0.40340000       0.25819000
H       -2.99778000      -2.00926000       2.21534000       0.50875000
H       -0.36960000       0.47495000       2.36920000       0.25809000
H        1.40924000      -2.05444000       2.42028000       0.22552000
H        0.74943000       2.50716000       2.77937000       0.22897000
H        2.78759000       3.89171000       2.88554000       0.21643000
H        4.98930000       2.92720000       2.21833000       0.21722000
H        5.11112000       0.56970000       1.43382000       0.21868000
H        3.06397000      -0.81148000       1.32352000       0.21986000
C       -1.51962000       3.74495000       3.65731000      -0.21163000
C       -0.51523000       4.26764000       4.47198000      -0.28050000
C        0.14964000       3.45542000       5.41538000       0.19388000
C       -0.25558000       2.10210000       5.50225000      -0.25757000
C       -1.24408000       1.58415000       4.67756000      -0.19415000
H       -2.02212000       4.38950000       2.94065000       0.22241000
H       -1.50230000       0.53187000       4.72304000       0.24715000
O        0.25845000      -2.24165000      -0.42463000      -0.55900000
O        0.14812000       2.28112000      -0.31563000      -0.54743000
C       -0.18251000      -3.60182000      -0.33617000      -0.23262000
H       -0.40587000      -3.85251000       0.70587000       0.19880000
H       -1.06327000      -3.77036000      -0.96304000       0.18423000
C       -0.41146000       3.59604000      -0.20800000      -0.22691000
H       -1.26911000       3.71480000      -0.87553000       0.19367000
H       -0.72632000       3.79426000       0.82231000       0.18505000
H        0.65323000      -4.20421000      -0.69585000       0.19416000
H        0.39309000       4.27727000      -0.48726000       0.19710000
H       -0.25290000       5.31195000       4.35667000       0.22154000
H        0.22767000       1.42978000       6.20007000       0.22428000
N        1.17127000       3.95603000       6.22619000      -0.51319000
C        2.10617000       3.00169000       6.80884000      -0.36543000
C        1.69872000       5.27560000       5.92763000      -0.36338000
H        2.87714000       3.54707000       7.35761000       0.20428000
H        1.60076000       2.34561000       7.52547000       0.20008000
H        2.59471000       2.37189000       6.04792000       0.19084000
H        2.14764000       5.34598000       4.92073000       0.17788000
H        0.91042000       6.03253000       6.00086000       0.20115000
H        2.46472000       5.53073000       6.66334000       0.20662000
