79
R5TS3majorcNO2.xyz  (col5 = NBO charge)
O       -0.70613000       2.46668000      -2.66189000      -0.51290000
N       -1.23800000       1.43127000      -3.13881000       0.45031000
C       -0.72160000       0.18582000      -2.95442000      -0.15531000
C        0.45492000      -0.03133000      -2.23405000      -0.07804000
C        1.15018000      -1.32828000      -2.31820000      -0.09889000
O       -1.87934000       1.50284000       0.00246000      -0.71912000
C       -0.67307000       1.26652000       0.12391000       0.81044000
C        0.00495000       0.00117000      -0.00778000      -0.49845000
C       -0.69544000      -1.25325000       0.12579000       0.80853000
O       -1.88992000      -1.48215000      -0.08045000      -0.71196000
C       -3.43174000      -1.99326000      -4.40520000      -0.23175000
C       -3.43675000      -2.13263000      -3.00470000       0.21519000
C       -2.97345000      -3.33020000      -2.42284000      -0.23228000
C       -2.45989000      -4.34569000      -3.21245000      -0.18127000
C       -2.42662000      -4.17405000      -4.59774000       0.02653000
C       -2.92964000      -3.01703000      -5.19840000      -0.17086000
N       -3.74254000      -1.09310000      -2.12633000      -0.66884000
C       -4.55121000       0.00497000      -2.28973000       0.36998000
S       -5.88044000       0.06348000      -3.33190000      -0.32323000
N       -4.17254000       1.00593000      -1.45794000      -0.67466000
C       -4.93931000       2.18116000      -1.09539000      -0.04818000
C       -4.15193000       3.47085000      -1.42656000      -0.01508000
C       -4.90742000       4.72584000      -0.97279000      -0.41520000
C       -5.19639000       4.66553000       0.53560000      -0.38511000
C       -5.99055000       3.40268000       0.88825000      -0.39332000
C       -5.24844000       2.14751000       0.41703000      -0.39671000
N       -3.75818000       3.53228000      -2.89500000      -0.51288000
C       -4.89107000       3.54597000      -3.87136000      -0.38690000
C       -2.79915000       4.64036000      -3.19035000      -0.36427000
O       -2.31438000       1.51716000      -3.84114000      -0.56299000
C        0.53874000      -2.47164000      -2.86382000      -0.19178000
C        1.21633000      -3.68662000      -2.92560000      -0.21304000
C        2.52198000      -3.78325000      -2.43710000      -0.19375000
C        3.14402000      -2.65544000      -1.89370000      -0.21003000
C        2.46466000      -1.44169000      -1.83560000      -0.16704000
H       -5.87795000       2.15444000      -1.65545000       0.24212000
H       -4.29919000       2.04484000       0.95911000       0.21796000
H       -5.83382000       1.24398000       0.61793000       0.22427000
H       -6.16544000       3.35061000       1.96912000       0.21573000
H       -6.97937000       3.44920000       0.40973000       0.20010000
H       -4.24511000       4.66633000       1.08635000       0.20070000
H       -5.74034000       5.56746000       0.83888000       0.21405000
H       -5.85963000       4.80279000      -1.51387000       0.21006000
H       -4.32846000       5.62675000      -1.20408000       0.21855000
H       -3.19217000       3.40128000      -0.90307000       0.24213000
H       -3.15766000      -1.10327000      -1.28184000       0.45407000
H       -3.30005000       0.89340000      -0.92835000       0.45199000
H       -4.45831000       3.53147000      -4.87341000       0.22422000
H       -5.48490000       4.45179000      -3.73735000       0.21019000
H       -5.49426000       2.64597000      -3.73925000       0.24448000
H       -2.31556000       4.41105000      -4.14018000       0.23053000
H       -2.03512000       4.66506000      -2.41615000       0.22730000
H       -3.33437000       5.58933000      -3.24892000       0.20814000
H        1.03942000      -0.00752000       0.31060000       0.24763000
H       -3.20510000       2.64784000      -3.12853000       0.48615000
H       -1.32087000      -0.58819000      -3.40048000       0.23152000
H        1.06650000       0.84305000      -2.03852000       0.25485000
H        2.94825000      -0.56915000      -1.40281000       0.21918000
H        4.16020000      -2.72294000      -1.51499000       0.22122000
H        3.05342000      -4.72974000      -2.48469000       0.22097000
H        0.72259000      -4.55117000      -3.36305000       0.22630000
H       -0.47261000      -2.42398000      -3.24617000       0.22055000
H       -2.98079000      -3.42394000      -1.34328000       0.24480000
H       -3.77199000      -1.06776000      -4.85048000       0.25412000
C       -0.31594000       3.58764000       0.36223000      -0.22460000
H       -0.68157000       3.82100000      -0.64221000       0.19022000
H       -1.13149000       3.69958000       1.08438000       0.18336000
C       -0.37472000      -3.57543000       0.46514000      -0.22465000
H       -1.23151000      -3.65216000       1.14095000       0.18920000
H       -0.67927000      -3.86139000      -0.54527000       0.18558000
O        0.21558000       2.26293000       0.38520000      -0.55838000
O        0.16310000      -2.24800000       0.46643000      -0.55461000
H        0.51496000       4.24407000       0.62632000       0.19234000
H        0.43940000      -4.21811000       0.80232000       0.19506000
H       -2.07304000      -5.25825000      -2.77618000       0.25047000
H       -2.88343000      -2.91569000      -6.27584000       0.25217000
N       -1.80525000      -5.20238000      -5.42525000       0.50145000
O       -1.94011000      -5.12557000      -6.64760000      -0.39663000
O       -1.16134000      -6.09020000      -4.85244000      -0.41200000
