93
R5TS3majorsNMe2cNMe2.xyz  (col5 = NBO charge)
O       -0.60538000       2.47142000      -2.61289000      -0.54138000
N       -1.12295000       1.44381000      -3.13344000       0.43786000
C       -0.64755000       0.19598000      -2.92552000      -0.15720000
C        0.50272000      -0.04919000      -2.15017000      -0.08615000
C        1.16799000      -1.35551000      -2.24781000      -0.18142000
O       -1.87947000       1.49651000       0.00168000      -0.70841000
C       -0.67546000       1.26628000       0.13015000       0.81604000
C        0.01138000       0.00040000      -0.01985000      -0.48865000
C       -0.70022000      -1.25052000       0.13772000       0.81132000
O       -1.88905000      -1.47753000      -0.08577000      -0.69737000
C       -3.14967000      -2.03772000      -4.51024000      -0.20160000
C       -3.32757000      -2.20452000      -3.13178000       0.11578000
C       -3.03712000      -3.45032000      -2.56744000      -0.20647000
C       -2.57467000      -4.50532000      -3.35026000      -0.27793000
C       -2.40385000      -4.35850000      -4.74378000       0.18311000
C       -2.70012000      -3.09186000      -5.29762000      -0.26298000
N       -3.61794000      -1.13291000      -2.25955000      -0.66361000
C       -4.43811000      -0.06415000      -2.43697000       0.37778000
S       -5.72784000      -0.01085000      -3.53923000      -0.36465000
N       -4.11255000       0.95034000      -1.58760000      -0.68675000
C       -4.91997000       2.10222000      -1.25106000      -0.04829000
C       -4.14496000       3.41015000      -1.53780000      -0.01467000
C       -4.94632000       4.64829000      -1.11724000      -0.41477000
C       -5.30739000       4.57501000       0.37486000      -0.38496000
C       -6.09180000       3.29440000       0.68363000      -0.39318000
C       -5.30255000       2.05636000       0.24394000      -0.39691000
N       -3.68179000       3.48386000      -2.98277000      -0.51558000
C       -4.76498000       3.47769000      -4.01266000      -0.38874000
C       -2.72820000       4.60656000      -3.22914000      -0.36428000
O       -2.15115000       1.56110000      -3.91058000      -0.58629000
C        0.51629000      -2.50552000      -2.72827000      -0.06394000
C        1.15045000      -3.73685000      -2.77407000      -0.32051000
C        2.48776000      -3.88995000      -2.33817000       0.21675000
C        3.14326000      -2.73462000      -1.84780000      -0.27828000
C        2.49265000      -1.51037000      -1.80882000      -0.14452000
H       -5.82984000       2.05958000      -1.85640000       0.24193000
H       -4.37943000       1.97003000       0.83240000       0.21585000
H       -5.87864000       1.14030000       0.41259000       0.22345000
H       -6.31937000       3.23497000       1.75460000       0.21341000
H       -7.05640000       3.32368000       0.15647000       0.19914000
H       -4.38397000       4.59143000       0.97113000       0.19992000
H       -5.88347000       5.46453000       0.65581000       0.21186000
H       -5.87248000       4.70848000      -1.70396000       0.20888000
H       -4.37559000       5.56223000      -1.31714000       0.21676000
H       -3.21097000       3.35821000      -0.96734000       0.24014000
H       -3.02475000      -1.11865000      -1.42430000       0.44605000
H       -3.27042000       0.84452000      -1.01381000       0.44707000
H       -4.28228000       3.47687000      -4.99182000       0.22269000
H       -5.38549000       4.36961000      -3.90575000       0.20677000
H       -5.35191000       2.56177000      -3.91426000       0.24721000
H       -2.19213000       4.38182000      -4.15141000       0.23094000
H       -2.00421000       4.64194000      -2.41759000       0.22645000
H       -3.27342000       5.54811000      -3.31559000       0.20463000
H        1.03403000      -0.00860000       0.33711000       0.24750000
H       -3.09723000       2.60764000      -3.20052000       0.48924000
H       -1.22973000      -0.56940000      -3.40808000       0.23344000
H        1.14140000       0.81154000      -1.97606000       0.25067000
H        3.02298000      -0.64719000      -1.41238000       0.21573000
H        4.16370000      -2.79093000      -1.48875000       0.22247000
H        0.58515000      -4.58111000      -3.14870000       0.22057000
H       -0.51374000      -2.46212000      -3.06192000       0.21844000
H       -3.13950000      -3.57778000      -1.49410000       0.22832000
H       -3.33495000      -1.06582000      -4.95298000       0.24224000
C       -0.32737000       3.58243000       0.40005000      -0.22508000
H       -0.68282000       3.81779000      -0.60719000       0.19334000
H       -1.15101000       3.68772000       1.11402000       0.18246000
C       -0.41672000      -3.56279000       0.52442000      -0.22621000
H       -1.24658000      -3.62968000       1.23453000       0.18775000
H       -0.77171000      -3.83416000      -0.47346000       0.19074000
O        0.20794000       2.25881000       0.42162000      -0.55893000
O        0.14465000      -2.24516000       0.51603000      -0.55490000
H        0.49883000       4.23998000       0.67661000       0.19028000
H        0.39924000      -4.22243000       0.82402000       0.19046000
N        3.12692000      -5.11844000      -2.39500000      -0.49667000
C        2.34965000      -6.30749000      -2.70041000      -0.36385000
C        4.42083000      -5.28035000      -1.75354000      -0.36419000
H        3.00650000      -7.17937000      -2.69339000       0.20884000
H        1.53725000      -6.47981000      -1.97618000       0.18829000
H        1.90093000      -6.23889000      -3.69914000       0.19902000
H        5.16458000      -4.60645000      -2.19546000       0.20031000
H        4.38412000      -5.08379000      -0.67020000       0.18958000
H        4.77261000      -6.30259000      -1.90534000       0.20812000
H       -2.56499000      -2.91142000      -6.35700000       0.22194000
H       -2.34800000      -5.44451000      -2.86016000       0.21896000
N       -1.96509000      -5.41858000      -5.54571000      -0.51454000
C       -1.43539000      -5.10841000      -6.86451000      -0.36425000
C       -1.44278000      -6.60525000      -4.89561000      -0.36203000
H       -1.10856000      -6.03301000      -7.34581000       0.20411000
H       -2.20905000      -4.66606000      -7.50162000       0.20022000
H       -0.58137000      -4.41148000      -6.83000000       0.18602000
H       -0.54651000      -6.40812000      -4.27940000       0.17399000
H       -2.20127000      -7.05886000      -4.24826000       0.20150000
H       -1.17829000      -7.34454000      -5.65524000       0.20639000
