97
R5TS18majorsNMe2.xyz  (col5 = NBO charge)
O       -0.69022000       2.40722000      -2.66571000      -0.54519000
N       -1.17384000       1.34863000      -3.15968000       0.43613000
C       -0.65333000       0.12550000      -2.92270000      -0.15252000
C        0.51033000      -0.05410000      -2.14631000      -0.08359000
C        1.24559000      -1.32006000      -2.22609000      -0.15060000
O       -1.88173000       1.49529000       0.00892000      -0.71245000
C       -0.67416000       1.26818000       0.11827000       0.82045000
C        0.01031000      -0.00087000      -0.01329000      -0.48630000
C       -0.69757000      -1.25397000       0.13987000       0.81789000
O       -1.88966000      -1.47349000      -0.08984000      -0.71062000
C       -3.47277000      -2.16062000      -4.36466000      -0.22202000
C       -3.44988000      -2.18060000      -2.96317000       0.32257000
C       -3.08559000      -3.36052000      -2.29649000      -0.22895000
C       -2.75108000      -4.50067000      -3.02307000      -0.15630000
C       -2.78754000      -4.49648000      -4.41764000      -0.17997000
C       -3.15173000      -3.31875000      -5.07226000      -0.14359000
N       -3.65740000      -1.04435000      -2.17501000      -0.70420000
C       -4.47596000       0.03378000      -2.38048000       0.37317000
S       -5.80189000       0.04353000      -3.43316000      -0.33795000
C       -2.29256000      -5.73187000      -2.29307000       1.07999000
C       -3.23565000      -3.30774000      -6.57596000       1.07909000
N       -4.11204000       1.07022000      -1.58661000      -0.67592000
C       -4.86625000       2.27605000      -1.31366000      -0.04767000
C       -4.04507000       3.52798000      -1.70393000      -0.01472000
C       -4.77805000       4.82399000      -1.33525000      -0.41488000
C       -5.10031000       4.85585000       0.16696000      -0.38524000
C       -5.93409000       3.63458000       0.57054000      -0.39309000
C       -5.21149000       2.33807000       0.19000000      -0.39740000
N       -3.62523000       3.49683000      -3.16470000      -0.51822000
C       -4.74036000       3.46970000      -4.15927000      -0.38724000
C       -2.64466000       4.57112000      -3.50628000      -0.36481000
O       -2.20809000       1.41408000      -3.93500000      -0.58300000
C        0.66758000      -2.50834000      -2.70858000      -0.16300000
C        1.36746000      -3.70203000      -2.73731000      -0.28004000
C        2.69774000      -3.78160000      -2.25940000       0.21833000
C        3.28793000      -2.58498000      -1.78248000      -0.27936000
C        2.57236000      -1.39765000      -1.77055000      -0.14131000
H       -5.79195000       2.23193000      -1.89373000       0.24205000
H       -4.27826000       2.24610000       0.76082000       0.21852000
H       -5.82235000       1.46073000       0.42790000       0.22375000
H       -6.13610000       3.64856000       1.64797000       0.21479000
H       -6.90974000       3.67711000       0.06517000       0.19947000
H       -4.16112000       4.86328000       0.73819000       0.20037000
H       -5.62678000       5.78674000       0.40768000       0.21301000
H       -5.71642000       4.89381000      -1.90111000       0.20953000
H       -4.17186000       5.69630000      -1.60340000       0.21798000
H       -3.09640000       3.46776000      -1.15936000       0.23903000
H       -3.05771000      -1.01712000      -1.34114000       0.45363000
H       -3.26053000       0.97065000      -1.02232000       0.44963000
H       -4.29117000       3.39140000      -5.15118000       0.22396000
H       -5.32488000       4.38905000      -4.08938000       0.20837000
H       -5.35849000       2.58668000      -3.98777000       0.24391000
H       -2.15275000       4.28084000      -4.43521000       0.22948000
H       -1.88987000       4.62433000      -2.72453000       0.22919000
H       -3.16204000       5.52445000      -3.62701000       0.20556000
H        1.03467000      -0.00694000       0.33816000       0.24879000
H       -3.07591000       2.58654000      -3.33997000       0.48862000
H       -1.20614000      -0.67191000      -3.38869000       0.22650000
H        1.10092000       0.84209000      -1.98200000       0.25250000
H        3.04979000      -0.50148000      -1.38015000       0.21639000
H        4.30366000      -2.58372000      -1.40610000       0.22335000
H        0.86120000      -4.58130000      -3.10831000       0.22966000
H       -0.35935000      -2.51958000      -3.05809000       0.21658000
H       -3.04931000      -3.36535000      -1.21438000       0.25780000
H       -2.53527000      -5.38602000      -4.98206000       0.24990000
H       -3.71221000      -1.24297000      -4.88495000       0.26394000
F       -0.93159000      -5.75785000      -2.15586000      -0.37013000
F       -2.79316000      -5.80464000      -1.04161000      -0.35339000
F       -2.62849000      -6.86554000      -2.94229000      -0.35316000
F       -2.36422000      -4.18368000      -7.13108000      -0.36164000
F       -2.96647000      -2.08761000      -7.08758000      -0.35485000
F       -4.46927000      -3.65635000      -7.00707000      -0.35610000
C       -0.30820000       3.60407000       0.30764000      -0.04803000
C        0.85843000       4.54886000       0.53034000      -0.60273000
H       -0.76999000       3.75339000      -0.67343000       0.19514000
H       -1.08345000       3.72218000       1.07431000       0.18236000
H        0.51359000       5.58871000       0.50177000       0.20935000
H        1.61415000       4.41152000      -0.24949000       0.21079000
H        1.32764000       4.36601000       1.50246000       0.20924000
C       -0.39376000      -3.59069000       0.45580000      -0.04884000
C        0.71912000      -4.53845000       0.85755000      -0.60472000
H       -1.25974000      -3.66097000       1.12239000       0.18976000
H       -0.72806000      -3.79677000      -0.56282000       0.18823000
H        0.36189000      -5.57177000       0.78583000       0.21351000
H        1.04810000      -4.35014000       1.88476000       0.20761000
H        1.57558000      -4.41752000       0.18812000       0.21364000
O        0.21400000       2.26726000       0.35804000      -0.56957000
O        0.14184000      -2.25090000       0.50605000      -0.56237000
N        3.37764000      -4.98332000      -2.24872000      -0.49282000
C        2.66431000      -6.21079000      -2.57006000      -0.36541000
C        4.69232000      -5.06291000      -1.63609000      -0.36353000
H        3.33461000      -7.06147000      -2.43698000       0.20899000
H        1.78395000      -6.35874000      -1.92798000       0.19723000
H        2.32368000      -6.21221000      -3.61360000       0.19933000
H        5.40115000      -4.38736000      -2.13141000       0.19933000
H        4.67122000      -4.80901000      -0.56486000       0.19130000
H        5.07720000      -6.07884000      -1.73917000       0.20956000
