77
R5TS3minorcPh.xyz  (col5 = NBO charge)
O        0.45509000      -3.39024000       2.99748000      -0.52055000
N        0.12191000      -2.18767000       2.81892000       0.44495000
C        1.05106000      -1.25618000       2.46648000      -0.14503000
C        0.65105000       0.04556000       2.13401000      -0.09100000
C        1.62413000       1.14982000       2.05855000      -0.08855000
O       -1.85627000      -1.56032000      -0.03674000      -0.70558000
C       -0.65791000      -1.28313000      -0.12273000       0.80991000
C        0.00549000      -0.00155000      -0.00658000      -0.50535000
C       -0.71371000       1.24616000      -0.13666000       0.80425000
O       -1.90320000       1.46541000       0.10852000      -0.69743000
C        2.92019000       0.98215000       1.54320000      -0.18677000
C        1.23737000       2.41808000       2.51876000      -0.18811000
C        2.12656000       3.49027000       2.47556000      -0.20902000
C        3.41196000       3.31423000       1.96097000      -0.20218000
C        3.80493000       2.05563000       1.49377000      -0.20838000
O       -1.10174000      -1.81894000       2.96490000      -0.57160000
N       -2.97872000      -3.70313000       2.76528000      -0.51605000
C       -2.22917000      -4.97782000       2.54327000      -0.37765000
C       -4.00716000      -3.43246000       1.67674000      -0.00671000
C       -4.70694000      -2.07048000       1.87126000      -0.05413000
C       -5.64547000      -1.80691000       0.67585000      -0.39339000
C       -6.67312000      -2.93065000       0.49814000      -0.39449000
C       -5.97660000      -4.28904000       0.35386000      -0.38530000
C       -5.03593000      -4.56189000       1.53988000      -0.41508000
N       -3.73964000      -1.00452000       2.00823000      -0.67763000
C       -3.72838000      -0.05546000       2.98402000       0.37559000
N       -2.92068000       0.98932000       2.65358000      -0.67163000
C       -2.42027000       2.02288000       3.47243000       0.16059000
S       -4.64167000      -0.14777000       4.41154000      -0.35246000
C       -3.48340000      -3.63607000       4.17208000      -0.38882000
H       -5.30499000      -2.08653000       2.78696000       0.24511000
H       -5.03621000      -1.70077000      -0.23252000       0.20930000
H       -6.13907000      -0.84433000       0.84565000       0.22565000
H       -7.30435000      -2.73168000      -0.37580000       0.21483000
H       -7.34048000      -2.95513000       1.37142000       0.20098000
H       -5.39238000      -4.30361000      -0.57717000       0.20057000
H       -6.71177000      -5.09868000       0.27895000       0.21360000
H       -5.62861000      -4.63500000       2.46145000       0.21030000
H       -4.53697000      -5.52627000       1.39700000       0.21793000
H       -3.39932000      -3.36752000       0.76667000       0.23576000
H       -2.64033000       1.06110000       1.66825000       0.44590000
H       -3.06519000      -0.91849000       1.24092000       0.44848000
H       -2.62805000      -3.80341000       4.82917000       0.22522000
H       -4.23485000      -4.41212000       4.33059000       0.20885000
H       -3.89678000      -2.64452000       4.36996000       0.24606000
H       -1.28732000      -4.89983000       3.08684000       0.24796000
H       -2.01783000      -5.08399000       1.47866000       0.21530000
H       -2.82397000      -5.82325000       2.89207000       0.21126000
H        1.01978000       0.01279000      -0.38266000       0.25182000
H       -2.24163000      -2.93178000       2.71884000       0.49072000
H       -0.34309000       0.31869000       2.46713000       0.25882000
H        2.05182000      -1.64713000       2.36493000       0.22967000
H        0.24083000       2.56028000       2.92149000       0.23032000
H        1.80837000       4.46123000       2.84552000       0.21997000
H        4.10503000       4.15036000       1.92058000       0.21805000
H        4.80226000       1.91390000       1.08604000       0.21934000
H        3.22566000       0.01266000       1.15848000       0.21937000
C       -2.36069000       3.31420000       2.92964000      -0.23673000
C       -1.76635000       4.34989000       3.65144000      -0.21426000
C       -1.23602000       4.10840000       4.92063000      -0.23208000
C       -1.30084000       2.81990000       5.45956000      -0.20372000
C       -1.88164000       1.77587000       4.74201000      -0.21775000
H       -2.77063000       3.48670000       1.93938000       0.23108000
H       -0.77519000       4.91457000       5.48456000       0.21776000
H       -1.91254000       0.76984000       5.14265000       0.23837000
O        0.28820000      -2.24650000      -0.31434000      -0.56031000
O        0.12356000       2.24650000      -0.51224000      -0.55165000
C       -0.12820000      -3.61266000      -0.28504000      -0.23344000
H       -0.11589000      -3.96884000       0.75075000       0.19163000
H       -1.12311000      -3.73200000      -0.72256000       0.18993000
C       -0.42568000       3.56908000      -0.47242000      -0.22538000
H       -1.29978000       3.65058000      -1.12478000       0.19014000
H       -0.71391000       3.83170000       0.54971000       0.18762000
H        0.61039000      -4.16681000      -0.86786000       0.19389000
H        0.37465000       4.22533000      -0.81680000       0.19363000
H       -0.88044000       2.62040000       6.44149000       0.21979000
H       -1.72371000       5.34709000       3.22102000       0.21795000
