93
R5TS3minorsNMe2cNMe2.xyz  (col5 = NBO charge)
O       -0.56163000      -3.27791000       3.08024000      -0.56557000
N       -0.56600000      -2.02983000       2.84844000       0.42459000
C        0.56070000      -1.40442000       2.44680000      -0.15698000
C        0.51849000      -0.04529000       2.02185000      -0.11875000
C        1.73615000       0.78498000       2.08130000      -0.12878000
O       -1.85548000      -1.53720000       0.00058000      -0.67315000
C       -0.66932000      -1.27985000      -0.16983000       0.82415000
C        0.02002000      -0.00200000       0.00375000      -0.47448000
C       -0.70712000       1.24781000      -0.10603000       0.81886000
O       -1.91369000       1.43780000       0.07736000      -0.70561000
C        3.02759000       0.28691000       1.84788000      -0.15567000
C        1.62513000       2.13858000       2.42963000      -0.15665000
C        2.73914000       2.95259000       2.57763000      -0.28776000
C        4.04137000       2.45035000       2.35530000       0.21053000
C        4.15309000       1.08891000       1.98019000      -0.27815000
O       -1.65223000      -1.34764000       3.01333000      -0.60974000
N       -3.79570000      -2.66814000       2.14356000      -0.52467000
C       -3.24366000      -3.95110000       1.61053000      -0.38252000
C       -4.78584000      -2.03244000       1.18824000      -0.00717000
C       -5.15887000      -0.60079000       1.61957000      -0.05584000
C       -6.06271000       0.03731000       0.54555000      -0.39134000
C       -7.32004000      -0.80268000       0.28859000      -0.39435000
C       -6.94949000      -2.24270000      -0.08817000      -0.38541000
C       -6.04576000      -2.88251000       0.97909000      -0.41378000
N       -3.97685000       0.19936000       1.84998000      -0.67712000
C       -3.73819000       0.94918000       2.96546000       0.37366000
N       -2.76543000       1.88088000       2.75556000      -0.66603000
C       -1.87489000       2.42888000       3.71544000       0.10651000
S       -4.57684000       0.78807000       4.42678000      -0.34266000
C       -4.25612000      -2.84223000       3.55718000      -0.38598000
H       -5.70987000      -0.62950000       2.56392000       0.24442000
H       -5.48619000       0.14857000      -0.38408000       0.20435000
H       -6.32480000       1.04590000       0.88239000       0.22406000
H       -7.92650000      -0.34539000      -0.50218000       0.21323000
H       -7.93987000      -0.81329000       1.19642000       0.20137000
H       -6.42221000      -2.24463000      -1.05282000       0.19989000
H       -7.85008000      -2.85402000      -0.21894000       0.21281000
H       -6.60076000      -2.95852000       1.92331000       0.21021000
H       -5.78064000      -3.90057000       0.67460000       0.21751000
H       -4.22532000      -1.96761000       0.25004000       0.23712000
H       -2.46093000       1.97756000       1.78679000       0.42881000
H       -3.30541000       0.27400000       1.08325000       0.44653000
H       -3.38954000      -3.19006000       4.12081000       0.23448000
H       -5.06557000      -3.57375000       3.59501000       0.20414000
H       -4.56875000      -1.87639000       3.95867000       0.24198000
H       -2.35959000      -4.18636000       2.20407000       0.25006000
H       -2.95320000      -3.79004000       0.57355000       0.22377000
H       -3.99507000      -4.73839000       1.69047000       0.20463000
H        1.02139000       0.02122000      -0.40841000       0.25900000
H       -2.95701000      -2.02263000       2.25211000       0.50883000
H       -0.38214000       0.46222000       2.34575000       0.25750000
H        1.42246000      -2.04857000       2.36378000       0.22237000
H        0.64601000       2.56014000       2.62392000       0.22465000
H        2.58243000       3.98208000       2.87502000       0.21907000
H        5.12554000       0.64749000       1.79855000       0.22139000
H        3.16171000      -0.75176000       1.55714000       0.21610000
C       -1.53664000       3.77987000       3.63248000      -0.21218000
C       -0.50765000       4.31311000       4.40992000      -0.28125000
C       -0.18368000       2.14844000       5.42284000      -0.25311000
C       -1.19795000       1.62029000       4.63738000      -0.19542000
H       -2.07210000       4.41860000       2.93476000       0.22236000
H       -1.44237000       0.56474000       4.68958000       0.24815000
O        0.24921000      -2.23854000      -0.45844000      -0.55890000
O        0.13936000       2.27995000      -0.34387000      -0.54596000
C       -0.19206000      -3.59873000      -0.36440000      -0.23322000
H       -0.39519000      -3.84985000       0.68171000       0.20051000
H       -1.08513000      -3.76470000      -0.97437000       0.18381000
C       -0.42696000       3.59286000      -0.24867000      -0.22674000
H       -1.28092000       3.70257000      -0.92260000       0.19345000
H       -0.75029000       3.79764000       0.77774000       0.18527000
H        0.63576000      -4.20138000      -0.74170000       0.19347000
H        0.37627000       4.27571000      -0.52784000       0.19687000
N        5.16164000       3.26001000       2.49420000      -0.50120000
C        5.01340000       4.55748000       3.13190000      -0.36357000
C        6.48146000       2.65128000       2.48284000      -0.36372000
H        5.98709000       5.04913000       3.17903000       0.20793000
H        4.34485000       5.20592000       2.55320000       0.19917000
H        4.61079000       4.48403000       4.15559000       0.18725000
H        6.61790000       1.91344000       3.29007000       0.18830000
H        6.67119000       2.14807000       1.52761000       0.20011000
H        7.23766000       3.43048000       2.59752000       0.20720000
H       -0.26052000       5.36022000       4.28553000       0.22082000
H        0.33498000       1.48147000       6.10027000       0.22394000
C        0.20733000       3.50426000       5.31744000       0.19536000
N        1.26859000       4.00709000       6.07826000      -0.51704000
C        2.27833000       3.05917000       6.53700000      -0.36626000
C        1.73529000       5.35190000       5.79672000      -0.36421000
H        3.08010000       3.60766000       7.03718000       0.20225000
H        1.85915000       2.36146000       7.26960000       0.20018000
H        2.71163000       2.47550000       5.70949000       0.19383000
H        2.13753000       5.47122000       4.77435000       0.17556000
H        0.92380000       6.07575000       5.92705000       0.20293000
H        2.52317000       5.61401000       6.50704000       0.20564000
