91
R5TS3minorsNMe2.xyz  (col5 = NBO charge)
O        0.63248000      -3.29751000       3.02016000      -0.54177000
N        0.24153000      -2.11890000       2.79040000       0.43486000
C        1.10706000      -1.14132000       2.44298000      -0.13616000
C        0.61960000       0.13739000       2.08420000      -0.09338000
C        1.49660000       1.31127000       2.04516000      -0.14923000
O       -1.85722000      -1.55507000      -0.05449000      -0.70380000
C       -0.65535000      -1.28525000      -0.10906000       0.81726000
C        0.00867000       0.00082000       0.00954000      -0.49327000
C       -0.72414000       1.23892000      -0.17451000       0.81642000
O       -1.89755000       1.46714000       0.13435000      -0.70156000
C        2.83442000       1.27211000       1.61847000      -0.15467000
C        0.98055000       2.55982000       2.42636000      -0.16160000
C        1.74641000       3.71370000       2.39312000      -0.28065000
C        3.08681000       3.67908000       1.94221000       0.22312000
C        3.61516000       2.41698000       1.56862000      -0.27310000
O       -1.01832000      -1.82387000       2.88022000      -0.60103000
N       -2.74194000      -3.80575000       2.98396000      -0.51946000
C       -1.93961000      -5.06402000       2.89676000      -0.37573000
C       -3.74473000      -3.66681000       1.84798000      -0.00873000
C       -4.55875000      -2.35827000       1.94506000      -0.05306000
C       -5.46673000      -2.22687000       0.70478000      -0.39426000
C       -6.39865000      -3.43381000       0.55025000      -0.39425000
C       -5.59493000      -4.73828000       0.50245000      -0.38540000
C       -4.68173000      -4.87681000       1.73221000      -0.41432000
N       -3.68804000      -1.20691000       2.05751000      -0.66788000
C       -3.82210000      -0.19306000       2.94726000       0.37046000
N       -3.05429000       0.88556000       2.59604000      -0.66830000
C       -2.75257000       2.03781000       3.33508000       0.18307000
S       -4.84681000      -0.24132000       4.29765000      -0.33933000
C       -3.29378000      -3.63740000       4.36210000      -0.38529000
H       -5.19036000      -2.37939000       2.83750000       0.24563000
H       -4.83102000      -2.11761000      -0.18456000       0.21126000
H       -6.03828000      -1.29856000       0.80841000       0.22568000
H       -7.00793000      -3.32769000      -0.35484000       0.21530000
H       -7.09614000      -3.46663000       1.39934000       0.20112000
H       -4.97612000      -4.75348000      -0.40599000       0.20028000
H       -6.26199000      -5.60623000       0.44543000       0.21403000
H       -5.30042000      -4.95094000       2.63672000       0.21021000
H       -4.10695000      -5.80539000       1.65589000       0.21871000
H       -3.11072000      -3.59909000       0.95572000       0.23312000
H       -2.70427000       0.91184000       1.62900000       0.45120000
H       -2.99059000      -1.11226000       1.31040000       0.45033000
H       -2.45981000      -3.73122000       5.06025000       0.22496000
H       -4.03449000      -4.41471000       4.56225000       0.20918000
H       -3.73977000      -2.64713000       4.46838000       0.24174000
H       -1.01441000      -4.89940000       3.44902000       0.24773000
H       -1.69243000      -5.25749000       1.85226000       0.21397000
H       -2.50978000      -5.89943000       3.30640000       0.21012000
H        1.01636000       0.01167000      -0.38616000       0.25405000
H       -2.02052000      -3.00739000       2.87717000       0.48898000
H       -0.39085000       0.33459000       2.42479000       0.25320000
H        2.13568000      -1.45964000       2.36996000       0.22703000
H       -0.04658000       2.62668000       2.76980000       0.21674000
H        1.28940000       4.64093000       2.70882000       0.22860000
H        4.63949000       2.33099000       1.22660000       0.22245000
H        3.27119000       0.32919000       1.29907000       0.21694000
C       -2.62787000       3.24428000       2.63127000      -0.19339000
C       -2.22167000       4.40112000       3.29510000      -0.14979000
C       -1.95278000       4.38694000       4.66236000      -0.17673000
C       -2.08618000       3.18318000       5.35589000      -0.14033000
C       -2.47183000       2.01163000       4.70838000      -0.16904000
H       -2.81970000       3.26024000       1.56518000       0.25870000
C       -1.99667000       5.65846000       2.50517000       1.07931000
H       -1.64075000       5.28820000       5.17576000       0.25070000
C       -1.84243000       3.15865000       6.84181000       1.07932000
H       -2.54046000       1.08152000       5.25512000       0.26083000
F       -0.71960000       5.71605000       2.01699000      -0.37066000
F       -2.16903000       6.77027000       3.24885000      -0.35386000
F       -2.81125000       5.74416000       1.43322000      -0.35279000
F       -2.96933000       3.44032000       7.53432000      -0.35581000
F       -0.91625000       4.07532000       7.20997000      -0.36092000
F       -1.40905000       1.95085000       7.26272000      -0.35541000
O        0.29065000      -2.24953000      -0.27750000      -0.55773000
O        0.07644000       2.20707000      -0.67579000      -0.54603000
C       -0.12651000      -3.61501000      -0.22443000      -0.23288000
H       -0.13366000      -3.94386000       0.82031000       0.19122000
H       -1.11131000      -3.74569000      -0.68070000       0.19027000
C       -0.47176000       3.53262000      -0.72437000      -0.22740000
H       -1.44910000       3.53506000      -1.21373000       0.19277000
H       -0.56319000       3.94549000       0.28294000       0.18877000
H        0.62550000      -4.18214000      -0.77653000       0.19481000
H        0.24635000       4.12099000      -1.29709000       0.19528000
N        3.84342000       4.83216000       1.86031000      -0.49267000
C        5.26239000       4.74641000       1.56147000      -0.36433000
C        3.29363000       6.08738000       2.34587000      -0.36434000
H        5.69057000       5.75025000       1.55468000       0.20906000
H        5.80995000       4.14484000       2.30302000       0.19214000
H        5.43499000       4.30430000       0.57157000       0.19772000
H        2.35701000       6.33304000       1.83034000       0.20172000
H        3.08920000       6.06622000       3.42753000       0.19188000
H        4.00397000       6.89197000       2.14741000       0.20812000
