86
R5TS18minorsCNcNO2.xyz  (col5 = NBO charge)
O        0.64741000      -3.39519000       3.00946000      -0.48181000
N        0.25942000      -2.21599000       2.83464000       0.45821000
C        1.15472000      -1.22527000       2.51415000      -0.13470000
C        0.69374000       0.05264000       2.23005000      -0.08771000
C        1.58524000       1.21421000       2.12092000      -0.05771000
O       -1.85781000      -1.56231000      -0.05525000      -0.71846000
C       -0.65389000      -1.28181000      -0.09175000       0.80020000
C       -0.00078000      -0.00137000      -0.02625000      -0.52065000
C       -0.71127000       1.24645000      -0.13747000       0.79912000
O       -1.90184000       1.46560000       0.11655000      -0.70986000
C        2.87088000       1.14541000       1.55770000      -0.17878000
C        1.12171000       2.45017000       2.59962000      -0.18524000
C        1.90786000       3.59305000       2.53008000      -0.15325000
C        3.18773000       3.51390000       1.95598000      -0.18560000
C        3.66406000       2.28080000       1.47085000      -0.14670000
O       -0.97846000      -1.90702000       2.94805000      -0.54825000
N       -2.80128000      -3.88319000       2.97947000      -0.51371000
C       -2.00882000      -5.14994000       2.87547000      -0.37529000
C       -3.79646000      -3.70934000       1.83627000      -0.00823000
C       -4.57134000      -2.37762000       1.94015000      -0.05310000
C       -5.47198000      -2.21643000       0.69772000      -0.39461000
C       -6.43370000      -3.39854000       0.53243000      -0.39436000
C       -5.66444000      -4.72345000       0.47734000      -0.38516000
C       -4.76148000      -4.89475000       1.71083000      -0.41563000
N       -3.66580000      -1.25219000       2.05501000      -0.67076000
C       -3.75538000      -0.24994000       2.96495000       0.36756000
N       -3.01511000       0.84013000       2.58464000      -0.67114000
C       -2.57605000       1.92754000       3.34774000       0.20927000
S       -4.70281000      -0.31367000       4.36732000      -0.32812000
C       -3.36624000      -3.74080000       4.35822000      -0.38805000
H       -5.20308000      -2.38362000       2.83268000       0.24544000
H       -4.83099000      -2.11762000      -0.18901000       0.21316000
H       -6.02035000      -1.27464000       0.80448000       0.22652000
H       -7.03625000      -3.26997000      -0.37399000       0.21696000
H       -7.13526000      -3.41934000       1.37845000       0.20135000
H       -5.04238000      -4.74888000      -0.42844000       0.20166000
H       -6.35382000      -5.57286000       0.41207000       0.21540000
H       -5.38752000      -4.95796000       2.61085000       0.21121000
H       -4.20955000      -5.83711000       1.63188000       0.21942000
H       -3.15662000      -3.65210000       0.94756000       0.23494000
H       -2.73120000       0.89411000       1.59530000       0.45411000
H       -3.00049000      -1.14646000       1.27813000       0.45108000
H       -2.54288000      -3.86969000       5.06329000       0.22406000
H       -4.12110000      -4.51136000       4.52528000       0.21271000
H       -3.79596000      -2.74478000       4.48330000       0.24504000
H       -1.07897000      -5.00098000       3.42454000       0.24427000
H       -1.77137000      -5.34294000       1.82910000       0.21668000
H       -2.58579000      -5.97975000       3.28541000       0.21522000
H        1.02789000       0.01018000      -0.35924000       0.24643000
H       -2.08825000      -3.10016000       2.89290000       0.48756000
H       -0.32656000       0.26467000       2.52474000       0.25873000
H        2.17483000      -1.56575000       2.42304000       0.23540000
H        0.13443000       2.50893000       3.03776000       0.23106000
H        1.53411000       4.53832000       2.91321000       0.24157000
H        4.65083000       2.22877000       1.02242000       0.23697000
H        3.23714000       0.20400000       1.15870000       0.22985000
C       -2.44840000       3.16536000       2.68771000      -0.23146000
C       -1.85254000       4.24481000       3.32332000      -0.18546000
C       -1.40730000       4.09363000       4.63747000       0.03000000
C       -1.57456000       2.89194000       5.32914000      -0.17500000
C       -2.14977000       1.80583000       4.68265000      -0.22150000
H       -2.78111000       3.24823000       1.65998000       0.24899000
H       -2.24557000       0.85496000       5.18979000       0.24905000
O        0.29327000      -2.26179000      -0.17453000      -0.57347000
O        0.12959000       2.24408000      -0.50939000      -0.56880000
C       -0.17161000      -3.61691000      -0.14363000      -0.04407000
C        1.05148000      -4.51378000      -0.12029000      -0.60650000
H       -0.77324000      -3.75532000       0.75924000       0.17238000
H       -0.81505000      -3.80147000      -1.01195000       0.18769000
H        0.74658000      -5.56668000      -0.11889000       0.20879000
H        1.63456000      -4.31986000       0.78413000       0.22029000
H        1.67953000      -4.33732000      -0.99918000       0.21066000
C       -0.39646000       3.58631000      -0.49714000      -0.04483000
C        0.70832000       4.49950000      -0.99390000      -0.60383000
H       -1.28889000       3.63106000      -1.13009000       0.19135000
H       -0.69511000       3.83750000       0.52604000       0.18131000
H        0.36409000       5.53932000      -0.99596000       0.21447000
H        1.00605000       4.22918000      -2.01198000       0.21063000
H        1.58660000       4.42645000      -0.34574000       0.21094000
C        4.00589000       4.68504000       1.84534000       0.32103000
N        4.67368000       5.63218000       1.74320000      -0.35492000
N       -0.69509000       5.19610000       5.27946000       0.50098000
O       -0.50709000       5.13486000       6.49489000      -0.39281000
O       -0.30404000       6.12083000       4.55826000      -0.40571000
H       -1.71606000       5.19246000       2.81680000       0.25238000
H       -1.21428000       2.81051000       6.34739000       0.25317000
