90
R5TS18majorsCN.xyz  (col5 = NBO charge)
O       -0.98943000       2.34013000      -2.78981000      -0.49252000
N       -1.51390000       1.26402000      -3.16741000       0.46123000
C       -0.90157000       0.04797000      -2.97548000      -0.14978000
C        0.32568000      -0.03447000      -2.33730000      -0.08519000
C        1.14254000      -1.25363000      -2.36305000      -0.05942000
O       -1.88019000       1.50621000       0.02380000      -0.72806000
C       -0.66839000       1.26959000       0.09119000       0.80434000
C       -0.00182000       0.00049000       0.00916000      -0.50894000
C       -0.69468000      -1.25496000       0.13256000       0.80070000
O       -1.88773000      -1.48619000      -0.09278000      -0.72220000
C       -4.01762000      -1.99261000      -4.23919000      -0.17596000
C       -3.77515000      -2.11720000      -2.86239000       0.18389000
C       -3.26384000      -3.32172000      -2.36150000      -0.19423000
C       -3.00717000      -4.38590000      -3.22601000      -0.14826000
C       -3.26396000      -4.28008000      -4.59067000      -0.18079000
C       -3.77187000      -3.07454000      -5.08065000      -0.14110000
N       -3.90434000      -1.05534000      -1.96119000      -0.67016000
C       -4.75597000       0.01539000      -1.99126000       0.37212000
S       -6.21529000       0.05818000      -2.84911000      -0.33040000
C       -2.40213000      -5.63513000      -2.65227000       1.08081000
C       -4.09145000      -2.95159000      -6.54761000       1.07912000
N       -4.29603000       1.01915000      -1.20432000      -0.67746000
C       -4.99927000       2.22547000      -0.82097000      -0.04934000
C       -4.22486000       3.47448000      -1.30540000      -0.01505000
C       -4.90164000       4.77284000      -0.85274000      -0.41637000
C       -5.02876000       4.80206000       0.67925000      -0.38480000
C       -5.80580000       3.58157000       1.18651000      -0.39331000
C       -5.14446000       2.28215000       0.71436000      -0.39729000
N       -3.98199000       3.43954000      -2.81114000      -0.51108000
C       -5.21130000       3.43636000      -3.66597000      -0.38767000
C       -3.03586000       4.50602000      -3.26529000      -0.36314000
O       -2.64543000       1.26621000      -3.76016000      -0.52815000
C        0.61214000      -2.52085000      -2.66857000      -0.18920000
C        1.42546000      -3.64566000      -2.68955000      -0.14963000
C        2.79462000      -3.52865000      -2.39590000      -0.18632000
C        3.33609000      -2.27036000      -2.08074000      -0.14844000
C        2.51388000      -1.15336000      -2.06597000      -0.17130000
H       -5.99307000       2.19361000      -1.27578000       0.24352000
H       -4.14541000       2.18383000       1.15852000       0.21915000
H       -5.72431000       1.40740000       1.02703000       0.22522000
H       -5.86492000       3.59531000       2.28092000       0.21636000
H       -6.83903000       3.62757000       0.81346000       0.20023000
H       -4.02389000       4.80845000       1.12481000       0.20080000
H       -5.51885000       5.73317000       0.98588000       0.21462000
H       -5.90437000       4.84448000      -1.29394000       0.21098000
H       -4.33220000       5.64432000      -1.19439000       0.21881000
H       -3.21746000       3.40807000      -0.88087000       0.24280000
H       -3.20005000      -1.06382000      -1.21302000       0.45543000
H       -3.37875000       0.90632000      -0.75709000       0.45248000
H       -4.88720000       3.35663000      -4.70528000       0.22474000
H       -5.76165000       4.36695000      -3.51937000       0.21172000
H       -5.82055000       2.56450000      -3.42092000       0.24613000
H       -2.65508000       4.21508000      -4.24451000       0.22999000
H       -2.19912000       4.55977000      -2.57234000       0.22787000
H       -3.56103000       5.46012000      -3.32578000       0.21025000
H        1.04886000      -0.00458000       0.26778000       0.24480000
H       -3.48497000       2.53244000      -3.03309000       0.48610000
H       -1.47809000      -0.78538000      -3.34198000       0.23520000
H        0.85049000       0.90047000      -2.17680000       0.25735000
H        2.93243000      -0.18253000      -1.81478000       0.22938000
H        4.39249000      -2.18115000      -1.84956000       0.23728000
H        1.00220000      -4.61641000      -2.91675000       0.24281000
H       -0.44670000      -2.64226000      -2.87049000       0.23073000
H       -3.05717000      -3.40868000      -1.30065000       0.25606000
H       -3.06569000      -5.10886000      -5.25854000       0.25273000
H       -4.36912000      -1.05276000      -4.64067000       0.26423000
F       -1.09067000      -5.43425000      -2.31408000      -0.37291000
F       -3.02075000      -6.02126000      -1.51707000      -0.35202000
F       -2.42674000      -6.66949000      -3.51279000      -0.35070000
F       -3.28012000      -3.72944000      -7.30175000      -0.36058000
F       -3.96012000      -1.68084000      -6.98726000      -0.35626000
F       -5.36076000      -3.33440000      -6.81234000      -0.35528000
C       -0.28960000       3.61393000       0.16067000      -0.04703000
C        0.88397000       4.56618000       0.30096000      -0.60231000
H       -0.79995000       3.73837000      -0.80052000       0.18807000
H       -1.02827000       3.75558000       0.95902000       0.18290000
H        0.53601000       5.60440000       0.25794000       0.20979000
H        1.60459000       4.40772000      -0.50764000       0.20952000
H        1.39708000       4.41182000       1.25546000       0.21095000
C       -0.37778000      -3.58828000       0.51403000      -0.04744000
C        0.75939000      -4.51509000       0.89825000      -0.60291000
H       -1.20137000      -3.62119000       1.23538000       0.19011000
H       -0.77915000      -3.84502000      -0.46935000       0.18539000
H        0.40231000      -5.55011000       0.92517000       0.21578000
H        1.15941000      -4.25665000       1.88388000       0.20963000
H        1.57062000      -4.44816000       0.16711000       0.21005000
O        0.23552000       2.28037000       0.22476000      -0.57500000
O        0.16145000      -2.24998000       0.47327000      -0.56893000
C        3.63275000      -4.69038000      -2.40225000       0.32196000
N        4.31447000      -5.63325000      -2.40214000      -0.35720000
