86
R5TS3majorsCNcNMe2.xyz  (col5 = NBO charge)
O       -0.69462000       2.55285000      -2.64766000      -0.50284000
N       -1.25072000       1.53658000      -3.13237000       0.45568000
C       -0.75372000       0.27473000      -2.96205000      -0.15748000
C        0.41720000       0.03571000      -2.24781000      -0.09864000
C        1.08613000      -1.27474000      -2.33948000      -0.05226000
O       -1.87962000       1.49536000      -0.00509000      -0.71191000
C       -0.67579000       1.26457000       0.13253000       0.80662000
C        0.00844000       0.00136000      -0.00828000      -0.49456000
C       -0.69442000      -1.25399000       0.11782000       0.80212000
O       -1.89141000      -1.47216000      -0.07304000      -0.70002000
C       -3.24831000      -1.98820000      -4.51526000      -0.20330000
C       -3.38238000      -2.20814000      -3.13925000       0.11014000
C       -3.05391000      -3.46849000      -2.62992000      -0.20739000
C       -2.59518000      -4.48532000      -3.46336000      -0.27948000
C       -2.46810000      -4.28524000      -4.85655000       0.18680000
C       -2.80341000      -3.00392000      -5.35428000      -0.26566000
N       -3.66552000      -1.17362000      -2.21954000      -0.66358000
C       -4.51936000      -0.12277000      -2.32579000       0.37370000
S       -5.83785000      -0.05273000      -3.39004000      -0.35716000
N       -4.19210000       0.86621000      -1.44337000      -0.69083000
C       -5.03658000       1.95916000      -1.01239000      -0.04935000
C       -4.33371000       3.31467000      -1.25526000      -0.01443000
C       -5.18061000       4.49126000      -0.75825000      -0.41548000
C       -5.48462000       4.33197000       0.74045000      -0.38475000
C       -6.19002000       2.99849000       1.01641000      -0.39344000
C       -5.35881000       1.82240000       0.49070000      -0.39622000
N       -3.91397000       3.47148000      -2.70897000      -0.50842000
C       -5.02728000       3.48851000      -3.70890000      -0.38816000
C       -2.99312000       4.62880000      -2.92521000      -0.36401000
O       -2.32329000       1.64601000      -3.82761000      -0.55317000
C        0.42258000      -2.42128000      -2.81487000      -0.19360000
C        1.06859000      -3.64825000      -2.86096000      -0.15112000
C        2.40157000      -3.76077000      -2.43196000      -0.19218000
C        3.07846000      -2.62135000      -1.96259000      -0.14846000
C        2.42188000      -1.39933000      -1.91981000      -0.17269000
H       -5.96632000       1.90646000      -1.58602000       0.24266000
H       -4.41089000       1.75430000       1.04142000       0.21448000
H       -5.88381000       0.87229000       0.63545000       0.22458000
H       -6.37240000       2.87941000       2.09086000       0.21466000
H       -7.17464000       3.00084000       0.52711000       0.20001000
H       -4.54299000       4.37262000       1.30612000       0.20026000
H       -6.09651000       5.17549000       1.08049000       0.21321000
H       -6.12837000       4.52764000      -1.31109000       0.21018000
H       -4.66377000       5.44144000      -0.93505000       0.21734000
H       -3.38205000       3.28292000      -0.71339000       0.24151000
H       -3.05705000      -1.18148000      -1.39583000       0.44591000
H       -3.32919000       0.75972000      -0.90189000       0.44821000
H       -4.57316000       3.54328000      -4.69994000       0.22396000
H       -5.66018000       4.36142000      -3.54049000       0.20954000
H       -5.59132000       2.55606000      -3.63485000       0.24808000
H       -2.47980000       4.46683000      -3.87289000       0.23230000
H       -2.24838000       4.64268000      -2.13175000       0.22496000
H       -3.56470000       5.55793000      -2.94445000       0.20826000
H        1.04465000      -0.00771000       0.30546000       0.24583000
H       -3.32828000       2.62729000      -2.97403000       0.48762000
H       -1.37060000      -0.48531000      -3.40920000       0.23874000
H        1.04595000       0.89608000      -2.04492000       0.25547000
H        2.94361000      -0.52409000      -1.54211000       0.22814000
H        4.10887000      -2.70533000      -1.63277000       0.23575000
H        0.53589000      -4.52182000      -3.22247000       0.23475000
H       -0.60919000      -2.37544000      -3.14015000       0.24175000
H       -3.13082000      -3.63987000      -1.56031000       0.22857000
H       -3.46942000      -1.00633000      -4.91818000       0.24131000
C       -0.32893000       3.58358000       0.40073000      -0.22508000
H       -0.69045000       3.82549000      -0.60299000       0.19192000
H       -1.14831000       3.68320000       1.12027000       0.18308000
C       -0.40832000      -3.57674000       0.45289000      -0.22596000
H       -1.19447000      -3.64664000       1.21046000       0.19018000
H       -0.82849000      -3.83062000      -0.52414000       0.18766000
O        0.20847000       2.26041000       0.41208000      -0.55990000
O        0.16270000      -2.26205000       0.43003000      -0.55863000
H        0.49783000       4.24044000       0.67649000       0.19172000
H        0.41770000      -4.24728000       0.69344000       0.19397000
C        3.06109000      -5.03150000      -2.47138000       0.32462000
N        3.58862000      -6.06830000      -2.50405000      -0.36489000
H       -2.70503000      -2.78311000      -6.40997000       0.22311000
H       -2.34372000      -5.43966000      -3.01668000       0.22154000
N       -2.03536000      -5.30443000      -5.70431000      -0.51039000
C       -1.46196000      -6.50337000      -5.11902000      -0.36202000
C       -1.62362000      -4.95809000      -7.05511000      -0.36396000
H       -1.19832000      -7.20195000      -5.91573000       0.20856000
H       -0.55371000      -6.30452000      -4.52357000       0.17926000
H       -2.18777000      -7.00608000      -4.47010000       0.20081000
H       -2.46111000      -4.53624000      -7.62237000       0.20001000
H       -0.79515000      -4.23077000      -7.07700000       0.18521000
H       -1.30080000      -5.86279000      -7.57437000       0.20667000
