85
R5TS3majorsNMe2cPh.xyz  (col5 = NBO charge)
O       -0.65912000       2.41548000      -2.63163000      -0.54319000
N       -1.16958000       1.37568000      -3.13614000       0.43737000
C       -0.67239000       0.13735000      -2.92102000      -0.15511000
C        0.48813000      -0.07632000      -2.14963000      -0.08631000
C        1.17664000      -1.37131000      -2.22469000      -0.14810000
O       -1.87945000       1.49595000       0.00950000      -0.71001000
C       -0.67331000       1.26781000       0.12202000       0.81733000
C        0.01036000      -0.00008000      -0.02180000      -0.48740000
C       -0.70300000      -1.24814000       0.14881000       0.81445000
O       -1.88741000      -1.48040000      -0.09460000      -0.70025000
C       -3.36642000      -2.06655000      -4.52963000      -0.22642000
C       -3.39576000      -2.22233000      -3.13643000       0.16492000
C       -3.03381000      -3.45305000      -2.56686000      -0.23840000
C       -2.65128000      -4.51732000      -3.38277000      -0.21402000
C       -2.63344000      -4.36950000      -4.77159000      -0.23575000
C       -2.99406000      -3.14209000      -5.33468000      -0.20310000
N       -3.64560000      -1.15315000      -2.25502000      -0.66936000
C       -4.47639000      -0.08056000      -2.39010000       0.37841000
S       -5.81670000      -0.02435000      -3.42838000      -0.35351000
N       -4.12027000       0.92337000      -1.54509000      -0.68106000
C       -4.90167000       2.09111000      -1.19711000      -0.04891000
C       -4.12022000       3.38660000      -1.52239000      -0.01569000
C       -4.89556000       4.63751000      -1.09064000      -0.41481000
C       -5.21208000       4.58351000       0.41234000      -0.38502000
C       -6.00188000       3.31576000       0.75779000      -0.39299000
C       -5.24000000       2.06409000       0.30881000      -0.39734000
N       -3.70068000       3.44142000      -2.98247000      -0.51623000
C       -4.81492000       3.43448000      -3.97846000      -0.38866000
C       -2.74859000       4.55609000      -3.26927000      -0.36404000
O       -2.21015000       1.47290000      -3.89886000      -0.58504000
C        0.53971000      -2.54655000      -2.66118000      -0.16655000
C        1.19522000      -3.76744000      -2.68215000      -0.27770000
C        2.54225000      -3.88285000      -2.26222000       0.22100000
C        3.18302000      -2.70118000      -1.81606000      -0.27806000
C        2.51053000      -1.48867000      -1.80217000      -0.14366000
H       -5.83007000       2.05358000      -1.77372000       0.24251000
H       -4.30154000       1.97278000       0.87095000       0.21769000
H       -5.82214000       1.15693000       0.50298000       0.22333000
H       -6.19804000       3.26992000       1.83558000       0.21376000
H       -6.98139000       3.35111000       0.25927000       0.19916000
H       -4.27089000       4.59461000       0.98027000       0.20005000
H       -5.76882000       5.48273000       0.70115000       0.21220000
H       -5.83834000       4.70240000      -1.64974000       0.20878000
H       -4.32112000       5.54286000      -1.31682000       0.21723000
H       -3.17003000       3.33020000      -0.98064000       0.24200000
H       -3.03868000      -1.15454000      -1.42924000       0.44845000
H       -3.26117000       0.81462000      -0.99677000       0.44885000
H       -4.36330000       3.41766000      -4.97224000       0.22281000
H       -5.42267000       4.33405000      -3.86304000       0.20732000
H       -5.40905000       2.52716000      -3.85108000       0.24624000
H       -2.24437000       4.32106000      -4.20695000       0.23029000
H       -1.99868000       4.59385000      -2.48202000       0.22707000
H       -3.29105000       5.49994000      -3.34711000       0.20505000
H        1.03382000      -0.00787000       0.33282000       0.24844000
H       -3.12790000       2.55865000      -3.20555000       0.48881000
H       -1.24407000      -0.64275000      -3.39364000       0.23312000
H        1.11318000       0.79837000      -1.99672000       0.25122000
H        3.03077000      -0.60442000      -1.44022000       0.21610000
H        4.20989000      -2.72812000      -1.47247000       0.22264000
H        0.64338000      -4.63301000      -3.02823000       0.22415000
H       -0.49702000      -2.52924000      -2.97706000       0.22690000
H       -3.03825000      -3.55139000      -1.48574000       0.23088000
H       -2.33998000      -5.19949000      -5.40846000       0.21580000
H       -3.61121000      -1.10329000      -4.95956000       0.24360000
C       -0.32037000       3.58672000       0.36270000      -0.22487000
H       -0.68349000       3.81497000      -0.64344000       0.19245000
H       -1.13836000       3.69822000       1.08215000       0.18302000
C       -0.42496000      -3.55094000       0.59834000      -0.22545000
H       -1.27877000      -3.59500000       1.28108000       0.18881000
H       -0.74390000      -3.85802000      -0.40134000       0.18885000
O        0.21402000       2.26280000       0.39005000      -0.55833000
O        0.13497000      -2.23328000       0.56289000      -0.55325000
H        0.50845000       4.24567000       0.62760000       0.19097000
H        0.38072000      -4.19814000       0.94837000       0.19153000
N        3.20447000      -5.09855000      -2.29137000      -0.49537000
C        2.45173000      -6.31271000      -2.55898000      -0.36386000
C        4.51674000      -5.21339000      -1.67766000      -0.36454000
H        3.12928000      -7.16826000      -2.53914000       0.20828000
H        1.65395000      -6.48590000      -1.81925000       0.18821000
H        1.98988000      -6.27866000      -3.55307000       0.20102000
H        5.23620000      -4.54066000      -2.16003000       0.20019000
H        4.50190000      -4.98114000      -0.60100000       0.18961000
H        4.88489000      -6.23327000      -1.80345000       0.20824000
H       -2.96980000      -3.01200000      -6.41340000       0.21820000
H       -2.37354000      -5.46572000      -2.92918000       0.21500000
