89
R5TS18majorsOMecNO2.xyz  (col5 = NBO charge)
O       -0.66368000       2.44456000      -2.65308000      -0.52687000
N       -1.17931000       1.40338000      -3.14247000       0.44422000
C       -0.66415000       0.16510000      -2.94371000      -0.15527000
C        0.50111000      -0.04489000      -2.19187000      -0.07839000
C        1.20799000      -1.33091000      -2.27470000      -0.13092000
O       -1.88016000       1.49982000       0.00452000      -0.71768000
C       -0.67291000       1.26791000       0.12229000       0.81586000
C        0.00698000       0.00085000      -0.00987000      -0.49286000
C       -0.69657000      -1.25355000       0.13062000       0.81335000
O       -1.89015000      -1.47989000      -0.08364000      -0.71096000
C       -3.35009000      -1.99186000      -4.43274000      -0.23131000
C       -3.38539000      -2.12882000      -3.03242000       0.21562000
C       -2.94035000      -3.32765000      -2.43905000      -0.23334000
C       -2.41583000      -4.34752000      -3.21608000      -0.18185000
C       -2.35413000      -4.17903000      -4.60081000       0.02652000
C       -2.83762000      -3.01990000      -5.21352000      -0.17129000
N       -3.70482000      -1.08604000      -2.16300000      -0.66893000
C       -4.50593000       0.01426000      -2.34774000       0.37132000
S       -5.81671000       0.06930000      -3.41388000      -0.32541000
N       -4.14019000       1.01839000      -1.51485000      -0.67359000
C       -4.90292000       2.20555000      -1.18440000      -0.04796000
C       -4.09735000       3.48320000      -1.51920000      -0.01566000
C       -4.84773000       4.75160000      -1.09454000      -0.41498000
C       -5.16363000       4.71441000       0.40904000      -0.38513000
C       -5.97776000       3.46486000       0.76329000      -0.39316000
C       -5.24024000       2.19605000       0.32239000      -0.39689000
N       -3.67740000       3.52259000      -2.98048000      -0.51497000
C       -4.79285000       3.53292000      -3.97603000      -0.38710000
C       -2.70563000       4.62007000      -3.27299000      -0.36397000
O       -2.24039000       1.48838000      -3.87326000      -0.57354000
C        0.60910000      -2.49242000      -2.80572000      -0.16916000
C        1.28741000      -3.69827000      -2.85518000      -0.25621000
C        2.60092000      -3.78505000      -2.36371000       0.34479000
C        3.22083000      -2.64210000      -1.83736000      -0.30299000
C        2.52136000      -1.43837000      -1.79720000      -0.13909000
H       -5.83103000       2.17885000      -1.76180000       0.24206000
H       -4.30227000       2.09147000       0.88326000       0.21826000
H       -5.83844000       1.30123000       0.52462000       0.22399000
H       -6.17323000       3.42878000       1.84133000       0.21536000
H       -6.95698000       3.51549000       0.26574000       0.19979000
H       -4.22208000       4.71164000       0.97629000       0.20065000
H       -5.70279000       5.62608000       0.69125000       0.21361000
H       -5.78939000       4.83149000      -1.65347000       0.20981000
H       -4.25522000       5.64327000      -1.32738000       0.21846000
H       -3.14828000       3.41130000      -0.97726000       0.24165000
H       -3.13380000      -1.09343000      -1.30894000       0.45395000
H       -3.27892000       0.90595000      -0.96702000       0.45185000
H       -4.34293000       3.50260000      -4.97017000       0.22401000
H       -5.38237000       4.44465000      -3.86391000       0.20941000
H       -5.40522000       2.63921000      -3.84370000       0.24437000
H       -2.20253000       4.37086000      -4.20756000       0.23070000
H       -1.95827000       4.65398000      -2.48310000       0.22715000
H       -3.23363000       5.57102000      -3.36014000       0.20696000
H        1.03575000      -0.00724000       0.32738000       0.24661000
H       -3.12495000       2.62918000      -3.19606000       0.48720000
H       -1.24437000      -0.61480000      -3.40460000       0.22997000
H        1.10614000       0.83547000      -2.00102000       0.25377000
H        3.00517000      -0.56165000      -1.37315000       0.21961000
H        4.23426000      -2.68111000      -1.45589000       0.22960000
H        0.82131000      -4.58572000      -3.27385000       0.23608000
H       -0.40431000      -2.46356000      -3.18477000       0.22287000
H       -2.97191000      -3.41973000      -1.35980000       0.24456000
H       -3.67348000      -1.06423000      -4.88597000       0.25444000
C       -0.30508000       3.60169000       0.34197000      -0.04773000
C        0.86101000       4.54273000       0.58263000      -0.60266000
H       -0.76179000       3.76457000      -0.63940000       0.19223000
H       -1.08443000       3.71108000       1.10594000       0.18222000
H        0.51709000       5.58310000       0.56601000       0.20962000
H        1.62047000       4.41503000      -0.19514000       0.21079000
H        1.32508000       4.34668000       1.55458000       0.20960000
C       -0.36561000      -3.58846000       0.47546000      -0.04543000
C        0.76857000      -4.50851000       0.88603000      -0.60353000
H       -1.21658000      -3.64685000       1.16282000       0.18865000
H       -0.72385000      -3.82217000      -0.53189000       0.18679000
H        0.42164000      -5.54751000       0.90041000       0.21330000
H        1.13626000      -4.24941000       1.88428000       0.20811000
H        1.59695000      -4.42898000       0.17637000       0.21199000
O        0.21492000       2.26435000       0.37733000      -0.56996000
O        0.15840000      -2.24587000       0.48072000      -0.56659000
O        3.17682000      -5.01468000      -2.43613000      -0.54126000
C        4.50349000      -5.17234000      -1.95272000      -0.22105000
H        4.57238000      -4.93695000      -0.88203000       0.17842000
H        4.75430000      -6.22284000      -2.10876000       0.20114000
H        5.21211000      -4.54314000      -2.50767000       0.17994000
N       -1.72541000      -5.21432000      -5.41429000       0.50136000
O       -1.82801000      -5.13317000      -6.63979000      -0.39822000
O       -1.10936000      -6.11209000      -4.82740000      -0.40927000
H       -2.04231000      -5.26104000      -2.77024000       0.25076000
H       -2.76846000      -2.92079000      -6.28991000       0.25183000
