79
R5TS3minorcNO2.xyz  (col5 = NBO charge)
O        0.53154000      -3.36965000       2.99863000      -0.51216000
N        0.17119000      -2.17769000       2.81590000       0.44875000
C        1.07915000      -1.21812000       2.47958000      -0.14156000
C        0.64268000       0.07142000       2.15660000      -0.08492000
C        1.56842000       1.21434000       2.09748000      -0.09268000
O       -1.85613000      -1.56303000      -0.04363000      -0.71119000
C       -0.65562000      -1.28374000      -0.11445000       0.80885000
C        0.00248000      -0.00134000      -0.00750000      -0.50887000
C       -0.71457000       1.24479000      -0.14359000       0.80598000
O       -1.90174000       1.46988000       0.11498000      -0.70549000
C        2.86695000       1.12402000       1.57077000      -0.18323000
C        1.12683000       2.44816000       2.59895000      -0.18872000
C        1.95680000       3.56714000       2.58808000      -0.21084000
C        3.24500000       3.46651000       2.05885000      -0.19688000
C        3.69552000       2.24293000       1.55059000      -0.20661000
O       -1.06544000      -1.84159000       2.94102000      -0.57242000
N       -2.88237000      -3.78590000       2.84553000      -0.51507000
C       -2.10591000      -5.05497000       2.69079000      -0.37595000
C       -3.88115000      -3.56826000       1.71658000      -0.00938000
C       -4.64073000      -2.23297000       1.86496000      -0.05314000
C       -5.54717000      -2.02217000       0.63449000      -0.39391000
C       -6.52515000      -3.18641000       0.44041000      -0.39443000
C       -5.77239000      -4.51815000       0.34081000      -0.38538000
C       -4.86257000      -4.73733000       1.56147000      -0.41496000
N       -3.72237000      -1.12242000       2.01044000      -0.66958000
C       -3.80447000      -0.14026000       2.94250000       0.36843000
N       -3.04597000       0.94541000       2.58804000      -0.66869000
C       -2.59122000       2.01606000       3.36290000       0.21075000
S       -4.76657000      -0.21865000       4.33359000      -0.32964000
C       -3.43410000      -3.68124000       4.23175000      -0.38685000
H       -5.26801000      -2.25910000       2.76028000       0.24516000
H       -4.91061000      -1.90587000      -0.25340000       0.21141000
H       -6.08233000      -1.07687000       0.77296000       0.22586000
H       -7.13237000      -3.02357000      -0.45747000       0.21611000
H       -7.22105000      -3.22381000       1.29059000       0.20134000
H       -5.15698000      -4.52356000      -0.56991000       0.20103000
H       -6.47260000      -5.35693000       0.25468000       0.21479000
H       -5.48219000      -4.82108000       2.46430000       0.21043000
H       -4.32321000      -5.68345000       1.44897000       0.21921000
H       -3.24490000      -3.49214000       0.82696000       0.23631000
H       -2.74577000       0.99690000       1.60470000       0.45185000
H       -3.03209000      -1.02454000       1.25619000       0.45119000
H       -2.60307000      -3.82843000       4.92400000       0.22532000
H       -4.18919000      -4.45449000       4.38679000       0.21063000
H       -3.85942000      -2.68811000       4.38852000       0.24339000
H       -1.18064000      -4.94253000       3.25582000       0.24652000
H       -1.86121000      -5.19580000       1.63750000       0.21594000
H       -2.69636000      -5.89761000       3.05323000       0.21230000
H        1.02107000       0.01308000      -0.37144000       0.25175000
H       -2.15481000      -3.00388000       2.78772000       0.48849000
H       -0.36740000       0.30542000       2.47144000       0.25514000
H        2.09312000      -1.57709000       2.39111000       0.23208000
H        0.12924000       2.52100000       3.01280000       0.22108000
H        1.59355000       4.50828000       2.99386000       0.22501000
H        3.89706000       4.33548000       2.04085000       0.22052000
H        4.69596000       2.16417000       1.13378000       0.22041000
H        3.21720000       0.18216000       1.15644000       0.22020000
C       -2.41921000       3.25039000       2.70558000      -0.23343000
C       -1.81016000       4.31503000       3.35243000      -0.18260000
C       -1.39193000       4.15223000       4.67414000       0.02996000
C       -1.59929000       2.95347000       5.36045000      -0.17189000
C       -2.19209000       1.88273000       4.70475000      -0.22067000
H       -2.73136000       3.34107000       1.67169000       0.24570000
H       -2.31999000       0.93392000       5.20852000       0.24976000
O        0.29323000      -2.24790000      -0.28525000      -0.55951000
O        0.12002000       2.23508000      -0.54660000      -0.55093000
C       -0.12322000      -3.61373000      -0.26245000      -0.23258000
H       -0.13180000      -3.96872000       0.77386000       0.18923000
H       -1.10820000      -3.73483000      -0.72116000       0.19048000
C       -0.41481000       3.56398000      -0.53320000      -0.22469000
H       -1.33460000       3.62361000      -1.12151000       0.19105000
H       -0.61781000       3.88052000       0.49395000       0.18400000
H        0.62852000      -4.16855000      -0.82733000       0.19511000
H        0.36205000       4.19391000      -0.96809000       0.19567000
N       -0.67221000       5.23946000       5.33195000       0.50146000
O       -0.48183000       5.15832000       6.54636000      -0.39538000
O       -0.27829000       6.17577000       4.62707000      -0.40849000
H       -1.64242000       5.25974000       2.85008000       0.25143000
H       -1.25715000       2.86172000       6.38398000       0.25266000
