81
R5TS3minorsNO2cNO2.xyz  (col5 = NBO charge)
O        0.46725000      -3.41070000       3.00500000      -0.49480000
N        0.12087000      -2.21493000       2.83867000       0.45326000
C        1.05080000      -1.26583000       2.50580000      -0.14142000
C        0.63761000       0.02573000       2.18675000      -0.10004000
C        1.58746000       1.14739000       2.10032000      -0.04585000
O       -1.85519000      -1.56705000      -0.04155000      -0.71044000
C       -0.65579000      -1.28507000      -0.11455000       0.80580000
C       -0.00020000      -0.00192000      -0.01306000      -0.50965000
C       -0.71232000       1.24815000      -0.13497000       0.80107000
O       -1.90208000       1.47244000       0.10996000      -0.70288000
C        2.87434000       1.01528000       1.55043000      -0.18012000
C        1.18091000       2.40118000       2.58469000      -0.18719000
C        2.02348000       3.50535000       2.52655000      -0.18126000
C        3.28835000       3.34135000       1.96513000       0.06960000
C        3.72750000       2.10832000       1.47863000      -0.17960000
O       -1.10392000      -1.85973000       2.97177000      -0.55627000
N       -2.96485000      -3.79104000       2.78534000      -0.51255000
C       -2.19215000      -5.05941000       2.60196000      -0.37596000
C       -3.95980000      -3.54405000       1.65789000      -0.00673000
C       -4.69382000      -2.19655000       1.82208000      -0.05358000
C       -5.59672000      -1.95512000       0.59472000      -0.39363000
C       -6.59440000      -3.10024000       0.38689000      -0.39459000
C       -5.86477000      -4.44352000       0.27016000      -0.38544000
C       -4.95998000      -4.69450000       1.48866000      -0.41551000
N       -3.75198000      -1.10744000       1.97916000      -0.67107000
C       -3.79946000      -0.14472000       2.93463000       0.36744000
N       -3.01956000       0.92987000       2.59348000      -0.67037000
C       -2.53592000       1.97409000       3.38771000       0.20791000
S       -4.74278000      -0.23163000       4.33663000      -0.32410000
C       -3.52112000      -3.71866000       4.17303000      -0.38759000
H       -5.32037000      -2.21995000       2.71794000       0.24539000
H       -4.95896000      -1.83935000      -0.29249000       0.21112000
H       -6.11531000      -1.00237000       0.74442000       0.22633000
H       -7.19881000      -2.91577000      -0.50857000       0.21682000
H       -7.29066000      -3.13618000       1.23674000       0.20163000
H       -5.24917000      -4.44826000      -0.64040000       0.20132000
H       -6.57944000      -5.26866000       0.17327000       0.21537000
H       -5.58245000      -4.77863000       2.38936000       0.21126000
H       -4.43658000      -5.64821000       1.36473000       0.21942000
H       -3.32099000      -3.46891000       0.77003000       0.23649000
H       -2.73852000       1.00081000       1.60630000       0.45120000
H       -3.06554000      -1.00910000       1.22202000       0.45035000
H       -2.69176000      -3.88063000       4.86388000       0.22559000
H       -4.27496000      -4.49665000       4.30672000       0.21206000
H       -3.94704000      -2.72902000       4.35006000       0.24410000
H       -1.27168000      -4.96835000       3.17840000       0.24568000
H       -1.94073000      -5.17281000       1.54697000       0.21689000
H       -2.79004000      -5.90778000       2.93708000       0.21404000
H        1.02039000       0.01205000      -0.37095000       0.24982000
H       -2.24109000      -3.01314000       2.74907000       0.48784000
H       -0.36925000       0.28303000       2.49245000       0.25926000
H        2.05633000      -1.64683000       2.41338000       0.23461000
H        0.19489000       2.50718000       3.01744000       0.23246000
H        1.71389000       4.47245000       2.90651000       0.25803000
H        4.71782000       2.02863000       1.04803000       0.25462000
H        3.19689000       0.05839000       1.15095000       0.23112000
C       -2.36635000       3.22583000       2.76467000      -0.23416000
C       -1.74241000       4.26822000       3.43487000      -0.18531000
C       -1.30401000       4.06208000       4.74381000       0.03016000
C       -1.50078000       2.84221000       5.39456000      -0.17370000
C       -2.10937000       1.79484000       4.71542000      -0.22089000
H       -2.69987000       3.35093000       1.74087000       0.24563000
H       -2.23324000       0.83063000       5.19044000       0.25005000
O        0.29597000      -2.24777000      -0.27788000      -0.55939000
O        0.13267000       2.24256000      -0.50806000      -0.55383000
C       -0.12078000      -3.61422000      -0.27458000      -0.23216000
H       -0.14319000      -3.98153000       0.75720000       0.18821000
H       -1.10016000      -3.72957000      -0.74637000       0.19164000
C       -0.40643000       3.57092000      -0.51036000      -0.22484000
H       -1.30881000       3.62687000      -1.12497000       0.19352000
H       -0.64219000       3.88755000       0.50980000       0.18307000
H        0.63784000      -4.16272000      -0.83614000       0.19621000
H        0.38047000       4.20321000      -0.92295000       0.19711000
N        4.18792000       4.50270000       1.87276000       0.50021000
O        5.31333000       4.31898000       1.40650000      -0.39469000
O        3.76057000       5.58834000       2.26280000      -0.38573000
H       -1.58152000       5.22904000       2.96141000       0.25333000
H       -1.14240000       2.71798000       6.40908000       0.25374000
N       -0.57784000       5.13132000       5.42833000       0.50099000
O       -0.36122000       5.00266000       6.63394000      -0.39433000
O       -0.20935000       6.09606000       4.75124000      -0.40208000
