93
R5TS18minorsOMe.xyz  (col5 = NBO charge)
O        0.73061000      -3.30433000       3.05642000      -0.51762000
N        0.31986000      -2.13914000       2.81336000       0.44563000
C        1.18178000      -1.14410000       2.47484000      -0.13831000
C        0.69547000       0.12866000       2.14220000      -0.08036000
C        1.58145000       1.29302000       2.04458000      -0.12759000
O       -1.86006000      -1.55014000      -0.06298000      -0.71209000
C       -0.65488000      -1.28126000      -0.08847000       0.80906000
C        0.00801000       0.00069000      -0.01176000      -0.50809000
C       -0.71866000       1.24073000      -0.16260000       0.80736000
O       -1.90000000       1.45655000       0.13163000      -0.70683000
C        2.89404000       1.21595000       1.55785000      -0.15361000
C        1.09405000       2.55581000       2.43081000      -0.16738000
C        1.88295000       3.69080000       2.34543000      -0.25390000
C        3.19278000       3.59641000       1.85137000       0.34581000
C        3.69901000       2.34797000       1.45834000      -0.29689000
O       -0.93890000      -1.86527000       2.87824000      -0.57848000
N       -2.64863000      -3.89101000       3.09619000      -0.51930000
C       -1.82492000      -5.13849000       3.01722000      -0.37595000
C       -3.68872000      -3.79589000       1.98645000      -0.00702000
C       -4.50586000      -2.48709000       2.06124000      -0.05362000
C       -5.45085000      -2.40736000       0.84441000      -0.39399000
C       -6.37807000      -3.62504000       0.76088000      -0.39431000
C       -5.56779000      -4.92618000       0.73585000      -0.38518000
C       -4.61879000      -5.01528000       1.94300000      -0.41506000
N       -3.63880000      -1.32872000       2.10475000      -0.67035000
C       -3.72436000      -0.30490000       2.98973000       0.36924000
N       -2.98343000       0.77307000       2.58852000      -0.70497000
C       -2.60994000       1.90230000       3.33310000       0.31827000
S       -4.66891000      -0.33849000       4.39899000      -0.34202000
C       -3.16599000      -3.70329000       4.48683000      -0.38757000
H       -5.10949000      -2.47836000       2.97309000       0.24592000
H       -4.84308000      -2.32574000      -0.06729000       0.21169000
H       -6.02594000      -1.47958000       0.93099000       0.22627000
H       -7.01412000      -3.55502000      -0.12909000       0.21590000
H       -7.05030000      -3.63142000       1.63066000       0.20127000
H       -4.97563000      -4.97115000      -0.18916000       0.20083000
H       -6.23066000      -5.79907000       0.72999000       0.21458000
H       -5.21128000      -5.05938000       2.86663000       0.21091000
H       -4.03935000      -5.94242000       1.88440000       0.21893000
H       -3.08498000      -3.75771000       1.07173000       0.22987000
H       -2.68091000       0.80755000       1.60407000       0.45372000
H       -2.98330000      -1.23599000       1.31864000       0.45070000
H       -2.31180000      -3.76918000       5.16343000       0.22468000
H       -3.88591000      -4.49012000       4.72099000       0.21047000
H       -3.62664000      -2.71831000       4.58416000       0.24409000
H       -0.88327000      -4.93983000       3.52900000       0.24745000
H       -1.61258000      -5.36609000       1.97217000       0.21489000
H       -2.36475000      -5.96775000       3.47664000       0.21238000
H        1.02464000       0.00918000      -0.38166000       0.24982000
H       -1.95448000      -3.08674000       2.95060000       0.48969000
H       -0.31804000       0.33369000       2.46565000       0.25410000
H        2.21330000      -1.45494000       2.41240000       0.22956000
H        0.08089000       2.64248000       2.80684000       0.22108000
H        1.49701000       4.66235000       2.63153000       0.23771000
H        4.70474000       2.25148000       1.06664000       0.22864000
H        3.29038000       0.26090000       1.22374000       0.22036000
C       -2.56285000       3.13672000       2.67071000      -0.23038000
C       -2.08333000       4.26538000       3.33432000      -0.15567000
C       -1.66789000       4.19430000       4.66311000      -0.17535000
C       -1.72535000       2.96262000       5.31647000      -0.14357000
C       -2.17976000       1.81850000       4.66408000      -0.21351000
H       -2.86950000       3.19532000       1.63388000       0.25967000
C       -1.92375000       5.55537000       2.58035000       1.07881000
H       -1.29736000       5.07403000       5.17525000       0.25157000
C       -1.31706000       2.87232000       6.76317000       1.07909000
H       -2.18563000       0.86404000       5.17241000       0.25804000
F       -0.67121000       5.65915000       2.04510000      -0.36675000
F       -2.09131000       6.63410000       3.37252000      -0.35282000
F       -2.78643000       5.65824000       1.54826000      -0.35283000
F       -2.36433000       3.09313000       7.58940000      -0.35544000
F       -0.37090000       3.78891000       7.07298000      -0.35959000
F       -0.81977000       1.65400000       7.07024000      -0.35642000
O        0.28629000      -2.26418000      -0.17515000      -0.57180000
O        0.08909000       2.23097000      -0.60851000      -0.56260000
C       -0.18372000      -3.61625000      -0.11073000      -0.04435000
C        1.03598000      -4.51542000      -0.03944000      -0.60784000
H       -0.79946000      -3.72254000       0.78641000       0.17480000
H       -0.81458000      -3.82573000      -0.98284000       0.18607000
H        0.72747000      -5.56719000      -0.01219000       0.20721000
H        1.60182000      -4.29450000       0.86965000       0.22394000
H        1.67971000      -4.36749000      -0.91241000       0.20911000
C       -0.45627000       3.56756000      -0.58697000      -0.04706000
C        0.63759000       4.50870000      -1.05165000      -0.60424000
H       -1.34133000       3.60649000      -1.23069000       0.18969000
H       -0.76719000       3.80572000       0.43201000       0.18533000
H        0.27151000       5.54065000      -1.02196000       0.21492000
H        0.94919000       4.27504000      -2.07498000       0.20662000
H        1.50805000       4.43226000      -0.39358000       0.21376000
O        3.88114000       4.76881000       1.78004000      -0.54416000
C        5.20619000       4.74651000       1.26848000      -0.22116000
H        5.23179000       4.38431000       0.23190000       0.17915000
H        5.55492000       5.78024000       1.29841000       0.20006000
H        5.86665000       4.12273000       1.88571000       0.17902000
