99
R5TS18majorsNMe2cNMe2.xyz  (col5 = NBO charge)
O       -0.60050000       2.48248000      -2.62282000      -0.53891000
N       -1.12196000       1.45455000      -3.13816000       0.43923000
C       -0.64417000       0.20604000      -2.93300000      -0.15566000
C        0.50671000      -0.03834000      -2.16122000      -0.08337000
C        1.17685000      -1.34130000      -2.26156000      -0.14488000
O       -1.88014000       1.49563000       0.00266000      -0.71135000
C       -0.67463000       1.26699000       0.12739000       0.81698000
C        0.01068000       0.00047000      -0.01656000      -0.48915000
C       -0.69906000      -1.25177000       0.13556000       0.81379000
O       -1.88966000      -1.47617000      -0.08512000      -0.70013000
C       -3.14070000      -2.03573000      -4.50898000      -0.20190000
C       -3.31833000      -2.20198000      -3.13037000       0.11633000
C       -3.02385000      -3.44643000      -2.56498000      -0.20614000
C       -2.55725000      -4.50038000      -3.34674000      -0.27770000
C       -2.38607000      -4.35395000      -4.74023000       0.18345000
C       -2.68676000      -3.08887000      -5.29524000      -0.26276000
N       -3.61175000      -1.13115000      -2.25847000      -0.66361000
C       -4.43500000      -0.06475000      -2.43452000       0.37803000
S       -5.72278000      -0.01185000      -3.53920000      -0.36545000
N       -4.11386000       0.94842000      -1.58167000      -0.68723000
C       -4.92722000       2.09492000      -1.24117000      -0.04821000
C       -4.15707000       3.40737000      -1.51887000      -0.01518000
C       -4.96550000       4.64024000      -1.09703000      -0.41457000
C       -5.33001000       4.55939000       0.39391000      -0.38489000
C       -6.10869000       3.27354000       0.69579000      -0.39309000
C       -5.31294000       2.04075000       0.25270000      -0.39688000
N       -3.68706000       3.48862000      -2.96132000      -0.51538000
C       -4.76560000       3.48234000      -3.99635000      -0.38868000
C       -2.73639000       4.61587000      -3.19902000      -0.36374000
O       -2.15537000       1.57103000      -3.90699000      -0.58450000
C        0.52845000      -2.49372000      -2.74099000      -0.16134000
C        1.16849000      -3.72157000      -2.79223000      -0.28312000
C        2.50900000      -3.86900000      -2.36394000       0.21243000
C        3.16269000      -2.71038000      -1.87935000      -0.27880000
C        2.50542000      -1.48965000      -1.83284000      -0.14177000
H       -5.83539000       2.05161000      -1.84907000       0.24187000
H       -4.39066000       1.95585000       0.84274000       0.21602000
H       -5.88549000       1.12155000       0.41622000       0.22342000
H       -6.33802000       3.20872000       1.76607000       0.21341000
H       -7.07245000       3.30033000       0.16694000       0.19904000
H       -4.40813000       4.57821000       0.99240000       0.20018000
H       -5.91147000       5.44478000       0.67681000       0.21182000
H       -5.89025000       4.69816000      -1.68619000       0.20890000
H       -4.39828000       5.55744000      -1.29209000       0.21663000
H       -3.22603000       3.35747000      -0.94361000       0.24031000
H       -3.02084000      -1.11774000      -1.42121000       0.44663000
H       -3.27234000       0.84326000      -1.00642000       0.44768000
H       -4.27826000       3.48829000      -4.97316000       0.22277000
H       -5.39067000       4.37082000      -3.88777000       0.20697000
H       -5.34858000       2.56313000      -3.90462000       0.24733000
H       -2.19025000       4.39316000      -4.11578000       0.23132000
H       -2.02072000       4.65653000      -2.38027000       0.22553000
H       -3.28584000       5.55445000      -3.29084000       0.20480000
H        1.03529000      -0.00841000       0.33458000       0.24620000
H       -3.10112000       2.61542000      -3.18068000       0.48939000
H       -1.22820000      -0.55943000      -3.41334000       0.23413000
H        1.13988000       0.82417000      -1.97700000       0.25089000
H        3.03385000      -0.62452000      -1.43825000       0.21621000
H        4.18523000      -2.76188000      -1.52590000       0.22278000
H        0.60388000      -4.56879000      -3.16081000       0.22187000
H       -0.50419000      -2.45517000      -3.06706000       0.22963000
H       -3.12607000      -3.57334000      -1.49162000       0.22890000
H       -3.32986000      -1.06506000      -4.95279000       0.24215000
C       -0.31369000       3.59769000       0.36720000      -0.04817000
C        0.85330000       4.54208000       0.59010000      -0.60257000
H       -0.78176000       3.75525000      -0.60924000       0.19486000
H       -1.08409000       3.70831000       1.14023000       0.18065000
H        0.50707000       5.58183000       0.57563000       0.20863000
H        1.60152000       4.41349000      -0.19839000       0.21083000
H        1.33180000       4.34952000       1.55590000       0.20833000
C       -0.39556000      -3.58128000       0.49674000      -0.04700000
C        0.73535000      -4.51875000       0.87781000      -0.60518000
H       -1.23319000      -3.63572000       1.20088000       0.18775000
H       -0.78040000      -3.80138000      -0.50404000       0.19131000
H        0.38160000      -5.55626000       0.87335000       0.20869000
H        1.11486000      -4.28563000       1.87815000       0.20842000
H        1.55833000      -4.42410000       0.16359000       0.21284000
O        0.20999000       2.26200000       0.40184000      -0.57109000
O        0.14738000      -2.24723000       0.50428000      -0.56721000
N        3.14970000      -5.09853000      -2.41349000      -0.49892000
C        2.36177000      -6.29229000      -2.67351000      -0.36447000
C        4.43455000      -5.25596000      -1.75173000      -0.36439000
H        3.01704000      -7.16537000      -2.66247000       0.20894000
H        1.56620000      -6.44525000      -1.92656000       0.18875000
H        1.89180000      -6.24455000      -3.66313000       0.19944000
H        5.18186000      -4.58048000      -2.18400000       0.20107000
H        4.38126000      -5.05894000      -0.66893000       0.18912000
H        4.79171000      -6.27709000      -1.89847000       0.20819000
H       -2.55212000      -2.90900000      -6.35480000       0.22202000
H       -2.32697000      -5.43810000      -2.85549000       0.21893000
N       -1.94268000      -5.41285000      -5.54128000      -0.51457000
C       -1.40709000      -5.10057000      -6.85724000      -0.36409000
C       -1.42255000      -6.59973000      -4.89006000      -0.36197000
H       -0.55573000      -4.40067000      -6.81783000       0.18610000
H       -1.07441000      -6.02388000      -7.33701000       0.20408000
H       -2.17873000      -4.66071000      -7.49853000       0.20012000
H       -0.52835000      -6.40315000      -4.27058000       0.17403000
H       -2.18324000      -7.05339000      -4.24533000       0.20159000
H       -1.15553000      -7.33872000      -5.64910000       0.20634000
