87
R5TS18minorsNO2cNO2.xyz  (col5 = NBO charge)
O        0.63280000      -3.41825000       3.00662000      -0.48365000
N        0.25393000      -2.23562000       2.83299000       0.45771000
C        1.15641000      -1.25539000       2.50317000      -0.13563000
C        0.70840000       0.02716000       2.21566000      -0.09350000
C        1.61791000       1.17308000       2.08483000      -0.04872000
O       -1.85889000      -1.55792000      -0.05394000      -0.71590000
C       -0.65484000      -1.28146000      -0.09365000       0.80131000
C        0.00246000      -0.00121000      -0.02458000      -0.51666000
C       -0.71168000       1.24673000      -0.13811000       0.79930000
O       -1.90263000       1.46042000       0.11610000      -0.70665000
C        2.90688000       1.06553000       1.53322000      -0.17739000
C        1.16426000       2.43213000       2.51196000      -0.18448000
C        1.95561000       3.56638000       2.38102000      -0.18312000
C        3.22054000       3.42633000       1.81247000       0.06992000
C        3.71277000       2.18765000       1.39709000      -0.18006000
O       -0.98032000      -1.91578000       2.95447000      -0.54820000
N       -2.80417000      -3.89610000       2.98724000      -0.51376000
C       -2.01378000      -5.16303000       2.86965000      -0.37518000
C       -3.80957000      -3.71735000       1.85380000      -0.00768000
C       -4.57646000      -2.38142000       1.96458000      -0.05315000
C       -5.49097000      -2.21720000       0.73272000      -0.39431000
C       -6.45975000      -3.39506000       0.57888000      -0.39446000
C       -5.69668000      -4.72310000       0.51451000      -0.38523000
C       -4.78085000      -4.89861000       1.73784000      -0.41581000
N       -3.66341000      -1.26126000       2.06639000      -0.67099000
C       -3.72648000      -0.26306000       2.98314000       0.36806000
N       -2.98309000       0.82137000       2.59465000      -0.67210000
C       -2.52316000       1.90048000       3.35822000       0.20833000
S       -4.64800000      -0.32367000       4.40260000      -0.32798000
C       -3.35726000      -3.76113000       4.37174000      -0.38842000
H       -5.19735000      -2.38232000       2.86472000       0.24564000
H       -4.86019000      -2.12185000      -0.16178000       0.21249000
H       -6.03361000      -1.27276000       0.84507000       0.22667000
H       -7.07251000      -3.26376000      -0.32025000       0.21702000
H       -7.15122000      -3.41301000       1.43323000       0.20147000
H       -5.08504000      -4.75081000      -0.39828000       0.20161000
H       -6.39023000      -5.56964000       0.45674000       0.21554000
H       -5.39745000      -4.95960000       2.64444000       0.21141000
H       -4.23364000      -5.84317000       1.65262000       0.21950000
H       -3.17817000      -3.66360000       0.95872000       0.23387000
H       -2.71793000       0.88001000       1.60078000       0.45392000
H       -3.00600000      -1.15891000       1.28281000       0.45069000
H       -2.52750000      -3.89299000       5.06869000       0.22437000
H       -4.11003000      -4.53313000       4.54146000       0.21250000
H       -3.78564000      -2.76554000       4.50532000       0.24530000
H       -1.08094000      -5.01938000       3.41476000       0.24481000
H       -1.78246000      -5.34865000       1.82052000       0.21645000
H       -2.58982000      -5.99487000       3.27669000       0.21509000
H        1.02721000       0.00935000      -0.36975000       0.24717000
H       -2.09270000      -3.11197000       2.89926000       0.48754000
H       -0.30435000       0.25677000       2.52257000       0.25965000
H        2.17120000      -1.60877000       2.40356000       0.23518000
H        0.17718000       2.51945000       2.94611000       0.23266000
H        1.60464000       4.53986000       2.70440000       0.25833000
H        4.70233000       2.12753000       0.96132000       0.25420000
H        3.26587000       0.10473000       1.17692000       0.23105000
C       -2.42164000       3.14872000       2.71466000      -0.23130000
C       -1.81923000       4.22364000       3.35290000      -0.18579000
C       -1.33683000       4.05415000       4.65151000       0.03042000
C       -1.46877000       2.83773000       5.32474000      -0.17565000
C       -2.05390000       1.75819000       4.67616000      -0.22058000
H       -2.78529000       3.24586000       1.69861000       0.24823000
H       -2.12693000       0.79711000       5.16797000       0.24870000
O        0.28910000      -2.26285000      -0.18320000      -0.57268000
O        0.12316000       2.24793000      -0.51338000      -0.56817000
C       -0.17966000      -3.61739000      -0.15714000      -0.04399000
C        1.04086000      -4.51754000      -0.12929000      -0.60678000
H       -0.78710000      -3.75584000       0.74187000       0.17284000
H       -0.81873000      -3.79787000      -1.02948000       0.18785000
H        0.73284000      -5.56950000      -0.13359000       0.20908000
H        1.61878000      -4.32880000       0.77951000       0.22035000
H        1.67480000      -4.33986000      -1.00368000       0.21079000
C       -0.42388000       3.58323000      -0.52459000      -0.04534000
C        0.67319000       4.51677000      -1.00023000      -0.60341000
H       -1.29982000       3.60598000      -1.18131000       0.19168000
H       -0.75580000       3.83617000       0.48766000       0.18230000
H        0.29046000       5.54134000      -1.05938000       0.21578000
H        1.03003000       4.22098000      -1.99188000       0.21113000
H        1.51993000       4.50858000      -0.30807000       0.20802000
N        4.05243000       4.62242000       1.61536000       0.49894000
O        5.22624000       4.45596000       1.28222000      -0.39276000
O        3.51998000       5.71945000       1.78476000      -0.38638000
H       -1.70802000       5.18221000       2.86097000       0.25315000
H       -1.07815000       2.74216000       6.33041000       0.25345000
N       -0.63039000       5.15892000       5.29903000       0.50106000
O       -0.37586000       5.05741000       6.49995000      -0.39487000
O       -0.31433000       6.12471000       4.59734000      -0.40182000
