80
R5TS3minorsCNcNO2.xyz  (col5 = NBO charge)
O        0.50859000      -3.40134000       2.99535000      -0.49621000
N        0.15253000      -2.20835000       2.82837000       0.45248000
C        1.07220000      -1.24988000       2.49752000      -0.14098000
C        0.64431000       0.03893000       2.18399000      -0.09619000
C        1.57743000       1.17432000       2.10552000      -0.05480000
O       -1.85549000      -1.56611000      -0.04240000      -0.71121000
C       -0.65563000      -1.28451000      -0.11363000       0.80586000
C        0.00012000      -0.00176000      -0.01275000      -0.51040000
C       -0.71257000       1.24731000      -0.13638000       0.80173000
O       -1.90201000       1.47163000       0.11098000      -0.70387000
C        2.86330000       1.07166000       1.54910000      -0.18257000
C        1.15494000       2.41468000       2.60831000      -0.18751000
C        1.98094000       3.53101000       2.56581000      -0.15141000
C        3.26029000       3.41912000       1.99712000      -0.18439000
C        3.69663000       2.18005000       1.49060000      -0.14579000
O       -1.07653000      -1.86395000       2.96015000      -0.55900000
N       -2.92717000      -3.79922000       2.81047000      -0.51293000
C       -2.15130000      -5.06703000       2.63748000      -0.37601000
C       -3.92472000      -3.56410000       1.68297000      -0.00680000
C       -4.66945000      -2.22191000       1.84254000      -0.05349000
C       -5.57508000      -1.99221000       0.61494000      -0.39383000
C       -6.56424000      -3.14564000       0.41246000      -0.39456000
C       -5.82455000      -4.48382000       0.30083000      -0.38547000
C       -4.91661000      -4.72265000       1.51936000      -0.41541000
N       -3.73676000      -1.12394000       1.99487000      -0.67067000
C       -3.79947000      -0.15200000       2.93979000       0.36717000
N       -3.03131000       0.92892000       2.59039000      -0.66954000
C       -2.55895000       1.98591000       3.37382000       0.20907000
S       -4.74714000      -0.23641000       4.33914000      -0.32460000
C       -3.48058000      -3.71476000       4.19835000      -0.38724000
H       -5.29527000      -2.24734000       2.73884000       0.24535000
H       -4.93868000      -1.87497000      -0.27301000       0.21137000
H       -6.10090000      -1.04293000       0.76144000       0.22623000
H       -7.17053000      -2.96941000      -0.48339000       0.21673000
H       -7.25977000      -3.18333000       1.26286000       0.20157000
H       -5.20973000      -4.48774000      -0.61027000       0.20129000
H       -6.53300000      -5.31480000       0.20813000       0.21526000
H       -5.53722000      -4.80779000       2.42129000       0.21118000
H       -4.38614000      -5.67284000       1.39880000       0.21935000
H       -3.28743000      -3.48751000       0.79410000       0.23650000
H       -2.74535000       0.99197000       1.60383000       0.45154000
H       -3.05145000      -1.02394000       1.23665000       0.45049000
H       -2.65007000      -3.87107000       4.88916000       0.22549000
H       -4.23447000      -4.49124000       4.34059000       0.21186000
H       -3.90657000      -2.72391000       4.36796000       0.24384000
H       -1.22820000      -4.96634000       3.20822000       0.24575000
H       -1.90408000      -5.19127000       1.58272000       0.21677000
H       -2.74457000      -5.91387000       2.98463000       0.21385000
H        1.02069000       0.01221000      -0.37066000       0.24966000
H       -2.20363000      -3.02015000       2.76461000       0.48778000
H       -0.36558000       0.28174000       2.49191000       0.25845000
H        2.08207000      -1.61910000       2.40402000       0.23430000
H        0.16906000       2.49824000       3.04581000       0.23079000
H        1.63906000       4.47997000       2.96914000       0.24090000
H        4.68481000       2.10179000       1.04905000       0.23663000
H        3.19973000       0.12544000       1.13523000       0.22972000
C       -2.38430000       3.22746000       2.73111000      -0.23382000
C       -1.75840000       4.27822000       3.38523000      -0.18504000
C       -1.32711000       4.09363000       4.69983000       0.02997000
C       -1.53820000       2.88842000       5.37316000      -0.17323000
C       -2.14606000       1.83091000       4.70918000      -0.22133000
H       -2.70974000       3.33537000       1.70295000       0.24628000
H       -2.27701000       0.87659000       5.20174000       0.25034000
O        0.29584000      -2.24791000      -0.27688000      -0.55969000
O        0.13105000       2.24100000      -0.51452000      -0.55350000
C       -0.12137000      -3.61396000      -0.27235000      -0.23213000
H       -0.14112000      -3.98085000       0.75964000       0.18796000
H       -1.10189000      -3.72926000      -0.74178000       0.19164000
C       -0.40673000       3.56955000      -0.51711000      -0.22450000
H       -1.31337000       3.62474000      -1.12560000       0.19305000
H       -0.63465000       3.88943000       0.50382000       0.18270000
H        0.63572000      -4.16315000      -0.83538000       0.19602000
H        0.37794000       4.19983000      -0.93701000       0.19728000
C        4.12240000       4.56119000       1.92069000       0.32229000
N        4.82736000       5.48382000       1.84850000      -0.35695000
N       -0.58549000       5.16424000       5.36249000       0.50093000
O       -0.40350000       5.07696000       6.57716000      -0.39260000
O       -0.16627000       6.08957000       4.65826000      -0.40585000
H       -1.58828000       5.22847000       2.89396000       0.25262000
H       -1.18710000       2.78111000       6.39222000       0.25344000
