87
R5TS18minorsOMecPh.xyz  (col5 = NBO charge)
O        0.78258000      -3.33478000       3.00456000      -0.51729000
N        0.36913000      -2.16598000       2.78466000       0.44697000
C        1.22655000      -1.16589000       2.44286000      -0.13992000
C        0.73099000       0.10907000       2.13875000      -0.07875000
C        1.60962000       1.27893000       2.03531000      -0.12685000
O       -1.85977000      -1.55150000      -0.05602000      -0.71091000
C       -0.65584000      -1.28050000      -0.09535000       0.80691000
C        0.00813000       0.00002000      -0.01497000      -0.51205000
C       -0.71675000       1.24201000      -0.15075000       0.80401000
O       -1.90137000       1.45653000       0.12290000      -0.69904000
C        2.89968000       1.21995000       1.49024000      -0.15320000
C        1.13528000       2.52665000       2.48236000      -0.16558000
C        1.92149000       3.66417000       2.39766000      -0.25567000
C        3.20699000       3.59103000       1.84056000       0.34289000
C        3.69744000       2.35709000       1.38728000      -0.29914000
O       -0.88511000      -1.88820000       2.87761000      -0.57330000
N       -2.64413000      -3.86839000       3.07384000      -0.51950000
C       -1.84594000      -5.12810000       2.94778000      -0.37739000
C       -3.70994000      -3.72814000       1.99438000      -0.00533000
C       -4.48988000      -2.40011000       2.11557000      -0.05410000
C       -5.46678000      -2.27638000       0.92785000      -0.39428000
C       -6.42582000      -3.46962000       0.84840000      -0.39435000
C       -5.64917000      -4.78963000       0.77741000      -0.38528000
C       -4.67015000      -4.92382000       1.95600000      -0.41517000
N       -3.59213000      -1.26691000       2.15676000      -0.67771000
C       -3.63209000      -0.24965000       3.05967000       0.37588000
N       -2.89742000       0.82068000       2.64818000      -0.67085000
C       -2.48519000       1.95063000       3.38804000       0.16046000
S       -4.52254000      -0.30422000       4.50594000      -0.35765000
C       -3.12021000      -3.69783000       4.48135000      -0.38919000
H       -5.06735000      -2.39243000       3.04448000       0.24560000
H       -4.88324000      -2.19258000       0.00058000       0.21086000
H       -6.01626000      -1.33677000       1.04721000       0.22605000
H       -7.08472000      -3.36831000      -0.02188000       0.21492000
H       -7.07355000      -3.47614000       1.73667000       0.20085000
H       -5.08352000      -4.83134000      -0.16422000       0.20071000
H       -6.33348000      -5.64600000       0.77388000       0.21349000
H       -5.23847000      -4.96933000       2.89464000       0.21039000
H       -4.11580000      -5.86404000       1.86630000       0.21784000
H       -3.12891000      -3.68756000       1.06495000       0.23143000
H       -2.63131000       0.85749000       1.65549000       0.44894000
H       -2.96326000      -1.17217000       1.35093000       0.44829000
H       -2.24924000      -3.79442000       5.13252000       0.22335000
H       -3.84934000      -4.47507000       4.71943000       0.20926000
H       -3.55714000      -2.70479000       4.60943000       0.24668000
H       -0.88078000      -4.95035000       3.42329000       0.24704000
H       -1.68125000      -5.34807000       1.89253000       0.21444000
H       -2.38031000      -5.95395000       3.41973000       0.21240000
H        1.02329000       0.00985000      -0.38841000       0.24812000
H       -1.93825000      -3.07646000       2.92794000       0.49047000
H       -0.27708000       0.30744000       2.48244000       0.25885000
H        2.25654000      -1.47573000       2.35367000       0.22862000
H        0.14130000       2.60059000       2.90800000       0.23344000
H        1.55579000       4.62380000       2.74833000       0.23271000
H        4.68440000       2.27566000       0.94728000       0.22802000
H        3.28163000       0.27569000       1.11125000       0.21993000
C       -2.50848000       3.19702000       2.74568000      -0.23320000
C       -2.00360000       4.32610000       3.39106000      -0.21501000
C       -1.48158000       4.22611000       4.68262000      -0.23285000
C       -1.46387000       2.98271000       5.32115000      -0.20633000
C       -1.95407000       1.84588000       4.68067000      -0.21950000
H       -2.89939000       3.26022000       1.73588000       0.23570000
H       -1.09080000       5.10592000       5.18624000       0.21770000
H       -1.92241000       0.87714000       5.16400000       0.23701000
O        0.28567000      -2.26308000      -0.20394000      -0.57380000
O        0.10465000       2.23983000      -0.56567000      -0.56727000
C       -0.18513000      -3.61472000      -0.14737000      -0.04403000
C        1.03408000      -4.51650000      -0.10409000      -0.60770000
H       -0.78823000      -3.73046000       0.75705000       0.17467000
H       -0.82903000      -3.81435000      -1.01236000       0.18529000
H        0.72448000      -5.56812000      -0.08366000       0.20677000
H        1.61375000      -4.30628000       0.79879000       0.22372000
H        1.66507000      -4.35973000      -0.98490000       0.20838000
C       -0.43931000       3.57393000      -0.53858000      -0.04656000
C        0.65623000       4.50799000      -1.01788000      -0.60443000
H       -1.32772000       3.61552000      -1.17797000       0.18861000
H       -0.75061000       3.80770000       0.48501000       0.18797000
H        0.29217000       5.54154000      -1.02374000       0.21072000
H        0.97212000       4.24517000      -2.03289000       0.20757000
H        1.52509000       4.44847000      -0.35586000       0.21306000
O        3.88993000       4.76874000       1.77433000      -0.54680000
C        5.18985000       4.76466000       1.20245000      -0.22098000
H        5.16866000       4.43392000       0.15523000       0.17902000
H        5.53947000       5.79769000       1.24752000       0.19921000
H        5.87867000       4.12373000       1.76921000       0.17885000
H       -2.02298000       5.28610000       2.88159000       0.21771000
H       -1.05001000       2.89156000       6.32178000       0.21914000
