99
R5TS18minorsNMe2cNMe2.xyz  (col5 = NBO charge)
O        0.89324000      -3.32599000       2.99212000      -0.52961000
N        0.44585000      -2.17170000       2.75240000       0.44233000
C        1.26948000      -1.14761000       2.41657000      -0.13714000
C        0.73347000       0.11807000       2.12107000      -0.07813000
C        1.56722000       1.31854000       2.06856000      -0.14727000
O       -1.86203000      -1.53917000      -0.05459000      -0.71001000
C       -0.65663000      -1.27821000      -0.09655000       0.80855000
C        0.01454000       0.00034000      -0.01442000      -0.51040000
C       -0.71823000       1.23860000      -0.15023000       0.80584000
O       -1.90324000       1.44501000       0.12161000      -0.69537000
C        2.89790000       1.33501000       1.61816000      -0.14925000
C        1.01514000       2.53923000       2.48656000      -0.14990000
C        1.74944000       3.71415000       2.49037000      -0.29457000
C        3.09222000       3.73209000       2.04645000       0.21783000
C        3.64314000       2.50482000       1.59782000      -0.27530000
O       -0.82181000      -1.93543000       2.82357000      -0.58309000
N       -2.50627000      -3.94457000       3.14765000      -0.52159000
C       -1.67720000      -5.18331000       3.01895000      -0.37826000
C       -3.61935000      -3.86318000       2.11255000      -0.00384000
C       -4.43323000      -2.55605000       2.23310000      -0.05458000
C       -5.46206000      -2.49108000       1.08529000      -0.39410000
C       -6.38760000      -3.71310000       1.07531000      -0.39445000
C       -5.57523000      -5.01146000       1.00422000      -0.38530000
C       -4.54417000      -5.08710000       2.14291000      -0.41479000
N       -3.56963000      -1.39707000       2.21464000      -0.68119000
C       -3.63071000      -0.34656000       3.08156000       0.37625000
N       -2.95890000       0.73737000       2.61698000      -0.66167000
C       -2.56177000       1.90342000       3.31512000       0.11312000
S       -4.47080000      -0.39246000       4.56028000      -0.37069000
C       -2.92798000      -3.74700000       4.56834000      -0.38906000
H       -4.97326000      -2.54299000       3.18441000       0.24565000
H       -4.92117000      -2.41387000       0.13173000       0.20916000
H       -6.03371000      -1.56490000       1.20536000       0.22607000
H       -7.08516000      -3.65374000       0.23159000       0.21422000
H       -6.99705000      -3.71535000       1.99029000       0.20089000
H       -5.04841000      -5.06111000       0.04061000       0.20015000
H       -6.23307000      -5.88720000       1.05046000       0.21307000
H       -5.07087000      -5.12539000       3.10582000       0.21018000
H       -3.96594000      -6.01273000       2.05230000       0.21763000
H       -3.08006000      -3.83254000       1.15768000       0.22758000
H       -2.67533000       0.73925000       1.62929000       0.44773000
H       -2.96636000      -1.30098000       1.39013000       0.44674000
H       -2.02788000      -3.80107000       5.18387000       0.22316000
H       -3.62456000      -4.53618000       4.85944000       0.20806000
H       -3.38702000      -2.76272000       4.68744000       0.24726000
H       -0.70091000      -4.96647000       3.45398000       0.24830000
H       -1.54362000      -5.42038000       1.96273000       0.21390000
H       -2.16914000      -6.01437000       3.52682000       0.21112000
H        1.02715000       0.01138000      -0.39549000       0.24845000
H       -1.82549000      -3.13596000       2.95291000       0.49165000
H       -0.28249000       0.27482000       2.46358000       0.25871000
H        2.31097000      -1.42036000       2.34033000       0.22671000
H       -0.01326000       2.56848000       2.82097000       0.23253000
H        1.26154000       4.61831000       2.83141000       0.22096000
H        4.65892000       2.46437000       1.22373000       0.22243000
H        3.35532000       0.41940000       1.25183000       0.21714000
C       -2.64799000       3.13254000       2.65555000      -0.20009000
C       -2.10354000       4.28775000       3.21207000      -0.28105000
C       -1.46291000       4.26019000       4.46857000       0.18476000
C       -1.41665000       3.01662000       5.13892000      -0.26261000
C       -1.94850000       1.86389000       4.57261000      -0.19206000
H       -3.09612000       3.17059000       1.66872000       0.23402000
H       -1.86742000       0.91772000       5.09435000       0.23565000
O        0.27769000      -2.26703000      -0.21609000      -0.57454000
O        0.09818000       2.24451000      -0.56112000      -0.56831000
C       -0.20410000      -3.61406000      -0.15351000      -0.04420000
C        1.00778000      -4.52632000      -0.11692000      -0.60842000
H       -0.80263000      -3.72184000       0.75513000       0.17499000
H       -0.85597000      -3.81058000      -1.01334000       0.18440000
H        0.68945000      -5.57537000      -0.08962000       0.20540000
H        1.59703000      -4.31666000       0.77987000       0.22514000
H        1.63221000      -4.37878000      -1.00405000       0.20788000
C       -0.45314000       3.57388000      -0.51760000      -0.04788000
C        0.65136000       4.52024000      -0.95119000      -0.60524000
H       -1.32659000       3.62732000      -1.17687000       0.18719000
H       -0.78892000       3.78641000       0.50267000       0.19023000
H        0.29307000       5.55593000      -0.92340000       0.20754000
H        0.98042000       4.29377000      -1.97076000       0.20804000
H        1.51038000       4.42606000      -0.28006000       0.21331000
N        3.83410000       4.90272000       2.04835000      -0.49673000
C        3.16171000       6.16369000       2.31358000      -0.36403000
H        3.89105000       6.97513000       2.27807000       0.20917000
H        2.36540000       6.38033000       1.58331000       0.18922000
H        2.71152000       6.16574000       3.31378000       0.19943000
C        5.12356000       4.93287000       1.37792000      -0.36426000
H        5.81849000       4.21680000       1.83245000       0.20040000
H        5.04743000       4.70058000       0.30391000       0.19050000
H        5.56089000       5.92744000       1.48404000       0.20828000
H       -0.93348000       2.93255000       6.10466000       0.22231000
H       -2.16896000       5.20690000       2.64276000       0.22025000
N       -0.88399000       5.40818000       5.02717000      -0.51912000
C       -0.78966000       6.59664000       4.19877000      -0.36462000
C        0.18111000       5.21928000       6.00345000      -0.36542000
H       -1.78484000       6.92061000       3.87651000       0.20387000
H       -0.35591000       7.40946000       4.78616000       0.20577000
H       -0.17125000       6.45450000       3.29325000       0.17471000
H       -0.19951000       4.74323000       6.91321000       0.20068000
H        1.00826000       4.60290000       5.61362000       0.18831000
H        0.57835000       6.19515000       6.29268000       0.20334000
