93
R5TS18majorsNO2cNMe2.xyz  (col5 = NBO charge)
O       -0.64115000       2.64764000      -2.60064000      -0.52249000
N       -1.28744000       1.63194000      -2.96528000       0.44912000
C       -0.80643000       0.36629000      -2.80821000      -0.17218000
C        0.39470000       0.11792000      -2.12732000      -0.12809000
C        1.11404000      -1.16118000      -2.34017000      -0.02944000
O       -1.88159000       1.46618000      -0.03204000      -0.69527000
C       -0.68522000       1.25952000       0.16592000       0.81486000
C        0.02272000       0.00128000      -0.01611000      -0.46474000
C       -0.68847000      -1.25629000       0.09686000       0.81559000
O       -1.90025000      -1.43555000      -0.05070000      -0.70774000
C       -2.88326000      -2.12136000      -4.68416000      -0.20097000
C       -3.09308000      -2.60758000      -3.38844000       0.10311000
C       -2.68941000      -3.91266000      -3.09252000      -0.20970000
C       -2.05677000      -4.70683000      -4.04488000      -0.27861000
C       -1.82213000      -4.22738000      -5.35354000       0.19109000
C       -2.26438000      -2.91362000      -5.64444000      -0.26456000
N       -3.51573000      -1.78160000      -2.31898000      -0.66181000
C       -4.46303000      -0.80671000      -2.30026000       0.36636000
S       -5.73986000      -0.69911000      -3.40679000      -0.34296000
N       -4.26869000       0.06885000      -1.26396000      -0.69160000
C       -5.29549000       0.91880000      -0.69630000      -0.05381000
C       -4.80937000       2.37733000      -0.59691000      -0.01685000
C       -5.90469000       3.29274000      -0.04277000      -0.41387000
C       -6.32199000       2.80937000       1.35706000      -0.38498000
C       -6.78465000       1.34598000       1.32217000      -0.39371000
C       -5.71201000       0.43646000       0.70689000      -0.39317000
N       -4.24419000       2.85318000      -1.92029000      -0.50326000
C       -5.22653000       2.98351000      -3.04203000      -0.38385000
C       -3.41960000       4.09377000      -1.78307000      -0.37173000
O       -2.43673000       1.75352000      -3.52601000      -0.58714000
C        0.50223000      -2.26445000      -2.96098000      -0.23397000
C        1.19137000      -3.45572000      -3.14210000      -0.08322000
C        2.51150000      -3.54669000      -2.70753000       0.01229000
C        3.15507000      -2.47015000      -2.09410000      -0.18265000
C        2.44886000      -1.28759000      -1.91462000      -0.17687000
H       -6.16128000       0.85832000      -1.36188000       0.24375000
H       -4.82076000       0.41174000       1.34990000       0.20721000
H       -6.07379000      -0.59359000       0.62005000       0.22432000
H       -7.03506000       1.00315000       2.33292000       0.21442000
H       -7.70571000       1.27215000       0.72666000       0.20136000
H       -5.46685000       2.90746000       2.04062000       0.20034000
H       -7.11567000       3.45679000       1.74736000       0.21378000
H       -6.77990000       3.27401000      -0.70502000       0.21060000
H       -5.55398000       4.33032000       0.00649000       0.21738000
H       -3.94324000       2.39290000       0.06965000       0.24633000
H       -2.92448000      -1.83621000      -1.48847000       0.43957000
H       -3.40774000      -0.02209000      -0.71967000       0.45274000
H       -4.65357000       3.22385000      -3.93836000       0.23119000
H       -5.93609000       3.78095000      -2.81600000       0.20863000
H       -5.72821000       2.02554000      -3.19251000       0.24369000
H       -2.76405000       4.14405000      -2.65201000       0.24533000
H       -2.80596000       3.99736000      -0.88942000       0.22326000
H       -4.07371000       4.96465000      -1.71576000       0.20698000
H        1.04572000      -0.01360000       0.34073000       0.25069000
H       -3.56647000       2.12972000      -2.27036000       0.49717000
H       -1.48029000      -0.39288000      -3.16401000       0.23016000
H        1.02534000       0.98877000      -1.97303000       0.25813000
H        2.93396000      -0.44524000      -1.42923000       0.22892000
H        4.18331000      -2.57379000      -1.77053000       0.25244000
H        0.70869000      -4.30168000      -3.61177000       0.24375000
H       -0.51553000      -2.20779000      -3.32109000       0.24121000
H       -2.85288000      -4.30316000      -2.09145000       0.22293000
H       -3.17483000      -1.10435000      -4.92320000       0.24180000
C       -0.31937000       3.58897000       0.47663000      -0.05313000
C        0.80732000       4.49975000       0.92792000      -0.60266000
H       -0.62821000       3.80014000      -0.55176000       0.20407000
H       -1.19539000       3.66998000       1.13168000       0.18041000
H        0.47671000       5.54416000       0.90895000       0.21188000
H        1.67048000       4.39841000       0.26268000       0.21132000
H        1.12428000       4.25389000       1.94663000       0.20840000
C       -0.40421000      -3.61340000       0.25675000      -0.04868000
C        0.72397000      -4.58712000       0.53710000      -0.60357000
H       -1.21501000      -3.69308000       0.98833000       0.19255000
H       -0.83152000      -3.76698000      -0.74010000       0.18849000
H        0.35228000      -5.61617000       0.48671000       0.21575000
H        1.14607000      -4.41729000       1.53268000       0.21126000
H        1.52200000      -4.46931000      -0.20145000       0.20944000
O        0.18140000       2.24105000       0.51663000      -0.57009000
O        0.16043000      -2.28549000       0.31755000      -0.56371000
N        3.23784000      -4.80708000      -2.90154000       0.50206000
O        4.39729000      -4.87276000      -2.49144000      -0.39099000
O        2.64569000      -5.73321000      -3.46226000      -0.39952000
H       -1.74394000      -5.70309000      -3.75742000       0.22398000
H       -2.10436000      -2.48693000      -6.62675000       0.22491000
N       -1.18474000      -5.01006000      -6.31202000      -0.50889000
C       -0.71289000      -4.37125000      -7.53018000      -0.36418000
C       -0.50480000      -6.22600000      -5.88939000      -0.36594000
H        0.01082000      -3.56259000      -7.33593000       0.18619000
H       -0.23065000      -5.11921000      -8.16263000       0.20709000
H       -1.54919000      -3.95005000      -8.09982000       0.19985000
H        0.31810000      -6.04134000      -5.17944000       0.18850000
H       -1.20989000      -6.92342000      -5.42362000       0.19951000
H       -0.08933000      -6.72479000      -6.76737000       0.20831000
