89
R5TS18major.xyz  (col5 = NBO charge)
O       -0.93191000       2.31304000      -2.76947000      -0.50820000
N       -1.44366000       1.23349000      -3.16356000       0.45530000
C       -0.84018000       0.02258000      -2.95762000      -0.15418000
C        0.37886000      -0.06412000      -2.29246000      -0.07269000
C        1.20098000      -1.28071000      -2.32878000      -0.09715000
O       -1.88033000       1.50540000       0.02321000      -0.72725000
C       -0.66882000       1.26910000       0.09384000       0.80763000
C       -0.00028000       0.00023000       0.00485000      -0.50822000
C       -0.69577000      -1.25368000       0.13652000       0.80716000
O       -1.88761000      -1.48591000      -0.09450000      -0.72284000
C       -3.96209000      -2.03206000      -4.26404000      -0.17503000
C       -3.73110000      -2.13583000      -2.88367000       0.18493000
C       -3.22433000      -3.33303000      -2.36051000      -0.19405000
C       -2.96072000      -4.41015000      -3.20613000      -0.14850000
C       -3.20689000      -4.32521000      -4.57434000      -0.18107000
C       -3.71022000      -3.12717000      -5.08664000      -0.14163000
N       -3.86869000      -1.06227000      -1.99838000      -0.66930000
C       -4.71539000       0.01106000      -2.05273000       0.37422000
S       -6.16507000       0.04731000      -2.92908000      -0.33492000
C       -2.35365000      -5.64849000      -2.61190000       1.08038000
C       -4.01904000      -3.02828000      -6.55730000       1.07934000
N       -4.26396000       1.02195000      -1.27111000      -0.67616000
C       -4.96426000       2.23967000      -0.92066000      -0.04909000
C       -4.16942000       3.47492000      -1.40782000      -0.01551000
C       -4.84482000       4.78501000      -0.98720000      -0.41576000
C       -5.00356000       4.83815000       0.54104000      -0.38490000
C       -5.80097000       3.63153000       1.04976000      -0.39310000
C       -5.14056000       2.32022000       0.61037000      -0.39763000
N       -3.89627000       3.41691000      -2.90643000      -0.51417000
C       -5.10691000       3.40177000      -3.78606000      -0.38799000
C       -2.93941000       4.47430000      -3.35760000      -0.36320000
O       -2.56147000       1.24046000      -3.79089000      -0.54398000
C        0.67924000      -2.54437000      -2.66007000      -0.18973000
C        1.50751000      -3.66283000      -2.70338000      -0.20842000
C        2.86832000      -3.54395000      -2.40880000      -0.19635000
C        3.39685000      -2.29730000      -2.06418000      -0.21012000
C        2.56948000      -1.17905000      -2.02344000      -0.17088000
H       -5.94884000       2.20905000      -1.39526000       0.24313000
H       -4.15174000       2.22051000       1.07630000       0.21987000
H       -5.73401000       1.45483000       0.92367000       0.22466000
H       -5.88289000       3.66195000       2.14246000       0.21566000
H       -6.82579000       3.68033000       0.65434000       0.19978000
H       -4.00811000       4.84287000       1.00729000       0.20066000
H       -5.49211000       5.77768000       0.82397000       0.21394000
H       -5.83744000       4.85833000      -1.45060000       0.21020000
H       -4.26120000       5.64675000      -1.32961000       0.21853000
H       -3.17176000       3.40669000      -0.96134000       0.24279000
H       -3.17158000      -1.06234000      -1.24288000       0.45552000
H       -3.35392000       0.91195000      -0.80809000       0.45264000
H       -4.76101000       3.30416000      -4.81684000       0.22449000
H       -5.65949000       4.33520000      -3.66729000       0.21069000
H       -5.72320000       2.53505000      -3.54024000       0.24561000
H       -2.53692000       4.16442000      -4.32227000       0.22989000
H       -2.11789000       4.53874000      -2.64767000       0.22804000
H       -3.46122000       5.42814000      -3.44752000       0.20880000
H        1.04645000      -0.00516000       0.27918000       0.24627000
H       -3.39312000       2.50336000      -3.10860000       0.48790000
H       -1.40558000      -0.81154000      -3.33906000       0.23299000
H        0.90435000       0.87175000      -2.13793000       0.25443000
H        2.98001000      -0.20966000      -1.75111000       0.21983000
H        4.45279000      -2.19732000      -1.82865000       0.22143000
H        3.51164000      -4.41897000      -2.44401000       0.22028000
H        1.08339000      -4.62812000      -2.95656000       0.22710000
H       -0.37868000      -2.66545000      -2.87003000       0.22073000
H       -3.02517000      -3.40300000      -1.29719000       0.25607000
H       -3.00410000      -5.16422000      -5.22799000       0.25172000
H       -4.30946000      -1.09813000      -4.68257000       0.26427000
F       -1.03119000      -5.45877000      -2.32010000      -0.37088000
F       -2.94356000      -5.99332000      -1.44743000      -0.35351000
F       -2.41896000      -6.70934000      -3.43986000      -0.35294000
F       -3.19733000      -3.81296000      -7.29398000      -0.36139000
F       -3.89285000      -1.76427000      -7.01665000      -0.35600000
F       -5.28399000      -3.42408000      -6.82676000      -0.35622000
C       -0.29002000       3.61243000       0.17132000      -0.04697000
C        0.88270000       4.56410000       0.32355000      -0.60218000
H       -0.78902000       3.73632000      -0.79575000       0.18862000
H       -1.03750000       3.75603000       0.96118000       0.18223000
H        0.53637000       5.60271000       0.27524000       0.20910000
H        1.61199000       4.40333000      -0.47679000       0.20979000
H        1.38521000       4.41046000       1.28387000       0.21021000
C       -0.37495000      -3.58704000       0.50168000      -0.04762000
C        0.76537000      -4.51335000       0.87767000      -0.60459000
H       -1.20614000      -3.64029000       1.21328000       0.18824000
H       -0.76183000      -3.82772000      -0.49126000       0.18643000
H        0.41563000      -5.55153000       0.87623000       0.21295000
H        1.15232000      -4.27475000       1.87370000       0.20776000
H        1.58085000      -4.41821000       0.15436000       0.21376000
O        0.23364000       2.27929000       0.24232000      -0.57476000
O        0.15635000      -2.24626000       0.49181000      -0.56692000
