85
R5TS3minorsNMe2cPh.xyz  (col5 = NBO charge)
O        0.64425000      -3.34136000       2.96547000      -0.54577000
N        0.26798000      -2.15201000       2.76116000       0.43472000
C        1.14416000      -1.18934000       2.39744000      -0.13815000
C        0.67697000       0.10342000       2.06321000      -0.09449000
C        1.59228000       1.24986000       2.00923000      -0.14510000
O       -1.85755000      -1.55427000      -0.04162000      -0.70033000
C       -0.65823000      -1.28394000      -0.12132000       0.81663000
C        0.01147000      -0.00027000       0.00350000      -0.49459000
C       -0.71954000       1.24244000      -0.15313000       0.81115000
O       -1.90174000       1.46259000       0.11839000      -0.69207000
C        2.90297000       1.17037000       1.51184000      -0.15602000
C        1.14894000       2.50281000       2.45968000      -0.16034000
C        1.96610000       3.62318000       2.42821000      -0.28098000
C        3.28181000       3.54846000       1.91412000       0.21965000
C        3.73116000       2.28148000       1.46401000      -0.27437000
O       -0.97973000      -1.83189000       2.89537000      -0.59652000
N       -2.75890000      -3.77254000       2.91876000      -0.51992000
C       -1.98469000      -5.03761000       2.73418000      -0.37800000
C       -3.82168000      -3.57333000       1.84970000      -0.00618000
C       -4.57896000      -2.23883000       2.02357000      -0.05375000
C       -5.55711000      -2.05033000       0.84557000      -0.39363000
C       -6.53813000      -3.22177000       0.72273000      -0.39441000
C       -5.78455000      -4.55104000       0.59736000      -0.38542000
C       -4.80466000      -4.74876000       1.76593000      -0.41460000
N       -3.66057000      -1.12498000       2.10550000      -0.67522000
C       -3.68356000      -0.13582000       3.03890000       0.37589000
N       -2.92340000       0.92841000       2.65817000      -0.66966000
C       -2.47793000       2.02803000       3.42089000       0.16153000
S       -4.58481000      -0.20872000       4.47615000      -0.35666000
C       -3.22658000      -3.65213000       4.33316000      -0.38791000
H       -5.15400000      -2.25599000       2.95386000       0.24527000
H       -4.97485000      -1.94209000      -0.08007000       0.20920000
H       -6.08850000      -1.10590000       1.00308000       0.22540000
H       -7.19803000      -3.07461000      -0.14031000       0.21429000
H       -7.18287000      -3.25170000       1.61272000       0.20075000
H       -5.22232000      -4.56487000      -0.34721000       0.20011000
H       -6.48373000      -5.39467000       0.56181000       0.21305000
H       -5.37068000      -4.82223000       2.70424000       0.20987000
H       -4.26791000      -5.69434000       1.63626000       0.21773000
H       -3.23955000      -3.50674000       0.92254000       0.23286000
H       -2.64665000       0.97018000       1.67028000       0.44606000
H       -3.00400000      -1.03638000       1.32319000       0.44763000
H       -2.35152000      -3.77624000       4.97391000       0.22450000
H       -3.95996000      -4.43237000       4.54832000       0.20740000
H       -3.65423000      -2.66134000       4.50073000       0.24490000
H       -1.02645000      -4.90727000       3.23784000       0.24894000
H       -1.80483000      -5.19235000       1.66954000       0.21391000
H       -2.54360000      -5.88046000       3.14413000       0.20947000
H        1.01333000       0.01240000      -0.40631000       0.25320000
H       -2.03195000      -2.98265000       2.81350000       0.49050000
H       -0.31549000       0.32665000       2.43838000       0.25747000
H        2.16285000      -1.52933000       2.29003000       0.22582000
H        0.14649000       2.60152000       2.86094000       0.22790000
H        1.56912000       4.55509000       2.81192000       0.22325000
H        4.73271000       2.16357000       1.06851000       0.22156000
H        3.28036000       0.22234000       1.13650000       0.21656000
C       -2.45758000       3.28516000       2.79926000      -0.23578000
C       -1.91680000       4.38614000       3.46378000      -0.21540000
C       -1.40116000       4.24630000       4.75416000      -0.23368000
C       -1.42765000       2.99250000       5.37196000      -0.20412000
C       -1.95513000       1.88359000       4.71286000      -0.21715000
H       -2.84746000       3.37820000       1.79083000       0.23269000
H       -0.98261000       5.10381000       5.27386000       0.21646000
H       -1.95637000       0.90569000       5.17840000       0.23854000
O        0.28466000      -2.24597000      -0.32496000      -0.55956000
O        0.10156000       2.23354000      -0.58117000      -0.54938000
C       -0.12699000      -3.61341000      -0.27685000      -0.23415000
H       -0.07170000      -3.96283000       0.75975000       0.19354000
H       -1.13749000      -3.73599000      -0.67567000       0.19004000
C       -0.45061000       3.55551000      -0.55663000      -0.22550000
H       -1.33723000       3.62157000      -1.19387000       0.18939000
H       -0.71880000       3.83700000       0.46568000       0.18938000
H        0.59002000      -4.16818000      -0.88562000       0.19330000
H        0.34132000       4.20654000      -0.92933000       0.19342000
N        4.09557000       4.66730000       1.84589000      -0.49689000
C        3.66101000       5.90428000       2.47182000      -0.36343000
C        5.49690000       4.51562000       1.49325000      -0.36431000
H        4.41704000       6.67491000       2.31015000       0.20759000
H        2.72338000       6.26144000       2.02810000       0.19825000
H        3.50367000       5.79644000       3.55655000       0.19080000
H        6.04115000       3.86568000       2.19631000       0.19047000
H        5.60742000       4.09381000       0.48649000       0.19857000
H        5.97631000       5.49629000       1.49337000       0.20803000
H       -1.01892000       2.87089000       6.37146000       0.21910000
H       -1.90430000       5.35514000       2.97115000       0.21669000
