87
R5TS3minorsOMe.xyz  (col5 = NBO charge)
O        0.35466000      -3.26580000       3.13400000      -0.53135000
N        0.02407000      -2.07522000       2.87739000       0.43967000
C        0.95996000      -1.15270000       2.54058000      -0.14424000
C        0.57750000       0.13831000       2.12860000      -0.09819000
C        1.55618000       1.23307000       2.05400000      -0.12644000
O       -1.85528000      -1.56132000      -0.06215000      -0.70787000
C       -0.65362000      -1.28674000      -0.09920000       0.78408000
C        0.00337000       0.00077000       0.00652000      -0.40916000
C       -0.72526000       1.23860000      -0.17957000       0.77473000
O       -1.89480000       1.47525000       0.14022000      -0.68236000
C        2.90219000       1.02810000       1.71861000      -0.15832000
C        1.13542000       2.55205000       2.30955000      -0.16826000
C        2.02170000       3.61549000       2.25466000      -0.25227000
C        3.36659000       3.39073000       1.92548000       0.34648000
C        3.80529000       2.08639000       1.65285000      -0.29714000
O       -1.21569000      -1.72040000       2.92564000      -0.58429000
N       -2.99054000      -3.71328000       2.86077000      -0.51739000
C       -2.19756000      -4.98018000       2.80788000      -0.37442000
C       -3.90998000      -3.54981000       1.65690000      -0.00985000
C       -4.70533000      -2.22741000       1.70860000      -0.05396000
C       -5.51283000      -2.06640000       0.40455000      -0.39423000
C       -6.45260000      -3.25432000       0.16934000      -0.39428000
C       -5.67304000      -4.57445000       0.17092000      -0.38521000
C       -4.85678000      -4.74151000       1.46421000      -0.41482000
N       -3.82255000      -1.09744000       1.90392000      -0.66856000
C       -3.97569000      -0.11661000       2.82758000       0.37009000
N       -3.13499000       0.93452000       2.57968000      -0.66533000
C       -2.82092000       2.03496000       3.38690000       0.18520000
S       -5.10069000      -0.17049000       4.09564000      -0.33748000
C       -3.64061000      -3.56842000       4.19947000      -0.38641000
H       -5.40341000      -2.24591000       2.55015000       0.24591000
H       -4.80937000      -1.96239000      -0.43283000       0.21164000
H       -6.07319000      -1.12817000       0.47359000       0.22595000
H       -6.98925000      -3.13007000      -0.77837000       0.21556000
H       -7.21315000      -3.27964000       0.96271000       0.20124000
H       -4.98830000      -4.59575000      -0.68874000       0.20055000
H       -6.35099000      -5.42814000       0.05668000       0.21427000
H       -5.54227000      -4.81077000       2.31947000       0.21043000
H       -4.29577000      -5.68060000       1.42083000       0.21883000
H       -3.21263000      -3.48590000       0.81356000       0.23614000
H       -2.72534000       0.97859000       1.63759000       0.44766000
H       -3.07045000      -1.00748000       1.21175000       0.45129000
H       -2.85916000      -3.67599000       4.95405000       0.22529000
H       -4.39287000      -4.34923000       4.32951000       0.21014000
H       -4.09383000      -2.57988000       4.29065000       0.24256000
H       -1.32010000      -4.84381000       3.43892000       0.24762000
H       -1.86866000      -5.15171000       1.78251000       0.21489000
H       -2.81152000      -5.81521000       3.14850000       0.21069000
H        1.01904000       0.01036000      -0.36743000       0.24646000
H       -2.26709000      -2.92132000       2.81930000       0.48916000
H       -0.42725000       0.42747000       2.41587000       0.25182000
H        1.96616000      -1.54107000       2.51236000       0.22780000
H        0.09655000       2.74283000       2.56043000       0.22125000
H        1.69255000       4.62810000       2.45606000       0.23700000
H        4.83678000       1.88767000       1.38659000       0.22830000
H        3.25510000       0.02754000       1.48492000       0.22001000
C       -2.54436000       3.24717000       2.74126000      -0.19953000
C       -2.12691000       4.35428000       3.48009000      -0.14728000
C       -1.99582000       4.28549000       4.86433000      -0.17793000
C       -2.28092000       3.07504000       5.50003000      -0.13896000
C       -2.67835000       1.95172000       4.78007000      -0.17067000
H       -2.63926000       3.30840000       1.66288000       0.25584000
C       -1.75425000       5.60529000       2.73842000       1.07986000
H       -1.67184000       5.14687000       5.43482000       0.25190000
C       -2.19035000       2.99352000       7.00123000       1.07919000
H       -2.86496000       1.01546000       5.28676000       0.26077000
F       -0.52982000       5.47654000       2.14256000      -0.37015000
F       -1.68315000       6.68483000       3.54051000      -0.35212000
F       -2.62349000       5.88277000       1.74302000      -0.35411000
F       -3.35881000       3.33943000       7.58786000      -0.35597000
F       -1.24350000       3.82840000       7.48985000      -0.36058000
F       -1.88913000       1.74581000       7.42240000      -0.35638000
O        0.29825000      -2.25262000      -0.22547000      -0.56162000
O        0.07383000       2.20023000      -0.69696000      -0.55023000
C       -0.12059000      -3.61734000      -0.16658000      -0.23361000
H       -0.18112000      -3.92821000       0.88208000       0.19103000
H       -1.08153000      -3.75859000      -0.66861000       0.19005000
C       -0.47997000       3.52251000      -0.77638000      -0.22720000
H       -1.45341000       3.50900000      -1.27318000       0.19277000
H       -0.58288000       3.95736000       0.22070000       0.18759000
H        0.65812000      -4.19317000      -0.67044000       0.19478000
H        0.23957000       4.10222000      -1.35588000       0.19586000
O        4.15877000       4.49752000       1.89214000      -0.54455000
C        5.53125000       4.33804000       1.56361000      -0.22097000
H        5.65933000       3.92376000       0.55439000       0.17854000
H        5.96530000       5.33881000       1.60027000       0.19980000
H        6.04705000       3.69216000       2.28696000       0.17905000
