87
R5TS3majorsOMe.xyz  (col5 = NBO charge)
O       -0.90436000       2.26561000      -2.74355000      -0.52786000
N       -1.39396000       1.17850000      -3.15632000       0.44698000
C       -0.79186000      -0.02109000      -2.92790000      -0.15751000
C        0.42006000      -0.09351000      -2.23042000      -0.07536000
C        1.25283000      -1.29904000      -2.26356000      -0.13033000
O       -1.87947000       1.50502000       0.02775000      -0.72014000
C       -0.66932000       1.26963000       0.09390000       0.81097000
C        0.00231000      -0.00067000      -0.00644000      -0.50203000
C       -0.70162000      -1.24969000       0.15340000       0.80877000
O       -1.88472000      -1.48914000      -0.10468000      -0.71589000
C       -3.91802000      -1.99490000      -4.31150000      -0.21783000
C       -3.70039000      -2.11326000      -2.92971000       0.32386000
C       -3.19028000      -3.31269000      -2.41632000      -0.23624000
C       -2.91290000      -4.37840000      -3.27279000      -0.15023000
C       -3.14803000      -4.28007000      -4.64137000      -0.18125000
C       -3.65322000      -3.07848000      -5.14422000      -0.14387000
N       -3.85451000      -1.04975000      -2.03496000      -0.70255000
C       -4.69174000       0.03065000      -2.10579000       0.37247000
S       -6.13652000       0.06634000      -2.99086000      -0.33533000
C       -2.31062000      -5.62014000      -2.68220000       1.08041000
C       -3.94739000      -2.96443000      -6.61665000       1.07924000
N       -4.24062000       1.04557000      -1.33045000      -0.67411000
C       -4.92163000       2.28600000      -1.02460000      -0.04946000
C       -4.09796000       3.49151000      -1.53959000      -0.01470000
C       -4.75045000       4.82593000      -1.15980000      -0.41569000
C       -4.92635000       4.92416000       0.36412000      -0.38497000
C       -5.75552000       3.74908000       0.89495000      -0.39311000
C       -5.11574000       2.41350000       0.50104000      -0.39781000
N       -3.81476000       3.38932000      -3.03368000      -0.51701000
C       -5.01826000       3.36997000      -3.92201000      -0.38836000
C       -2.84029000       4.42114000      -3.50530000      -0.36363000
O       -2.49244000       1.18277000      -3.82508000      -0.55911000
C        0.73998000      -2.58244000      -2.54557000      -0.16984000
C        1.56684000      -3.69236000      -2.56781000      -0.24978000
C        2.93919000      -3.55897000      -2.30055000       0.35014000
C        3.46908000      -2.29486000      -2.00806000      -0.30143000
C        2.62360000      -1.18850000      -1.98896000      -0.14520000
H       -5.90097000       2.25915000      -1.51001000       0.24343000
H       -4.13552000       2.30800000       0.98324000       0.21980000
H       -5.73013000       1.56879000       0.83010000       0.22443000
H       -5.85159000       3.81151000       1.98517000       0.21529000
H       -6.77367000       3.80769000       0.48388000       0.19979000
H       -3.93681000       4.92036000       0.84293000       0.20023000
H       -5.39772000       5.88133000       0.61543000       0.21364000
H       -5.73591000       4.90767000      -1.63692000       0.21003000
H       -4.14513000       5.66598000      -1.51788000       0.21840000
H       -3.10484000       3.41547000      -1.08437000       0.24213000
H       -3.16235000      -1.04868000      -1.27596000       0.45386000
H       -3.33669000       0.93415000      -0.85698000       0.45134000
H       -4.66618000       3.23751000      -4.94685000       0.22401000
H       -5.55600000       4.31565000      -3.83470000       0.20980000
H       -5.65194000       2.52152000      -3.65797000       0.24524000
H       -2.43708000       4.08009000      -4.45925000       0.22917000
H       -2.02174000       4.49052000      -2.79272000       0.22952000
H       -3.34714000       5.37999000      -3.62409000       0.20757000
H        1.04042000      -0.00478000       0.30003000       0.24838000
H       -3.31774000       2.46227000      -3.20904000       0.48943000
H       -1.33384000      -0.86493000      -3.32189000       0.23122000
H        0.94318000       0.84860000      -2.10504000       0.25416000
H        3.03920000      -0.21146000      -1.75389000       0.22014000
H        4.52348000      -2.16343000      -1.79554000       0.22931000
H        1.17103000      -4.67858000      -2.77858000       0.23769000
H       -0.32017000      -2.72311000      -2.73076000       0.22254000
H       -2.99543000      -3.39319000      -1.35257000       0.25394000
H       -2.93252000      -5.10966000      -5.30276000       0.25159000
H       -4.26269000      -1.05713000      -4.72286000       0.26294000
F       -1.02298000      -5.39719000      -2.27790000      -0.37173000
F       -2.97716000      -6.03203000      -1.58240000      -0.35402000
F       -2.27246000      -6.64788000      -3.55176000      -0.35260000
F       -3.10631000      -3.72739000      -7.35445000      -0.36140000
F       -3.83566000      -1.69309000      -7.05887000      -0.35690000
F       -5.20338000      -3.37601000      -6.90526000      -0.35659000
C       -0.29839000       3.59950000       0.19275000      -0.22394000
H       -0.70608000       3.78653000      -0.80543000       0.18849000
H       -1.08369000       3.74889000       0.94116000       0.18386000
C       -0.41798000      -3.54969000       0.65477000      -0.22712000
H       -1.31527000      -3.55692000       1.27999000       0.19016000
H       -0.66343000      -3.93209000      -0.33863000       0.18796000
O        0.23397000       2.27700000       0.25762000      -0.56208000
O        0.13736000      -2.22981000       0.57329000      -0.55370000
H        0.54244000       4.26699000       0.38999000       0.19148000
H        0.36442000      -4.16469000       1.10155000       0.19462000
O        3.66098000      -4.71136000      -2.34618000      -0.54301000
C        5.05400000      -4.64846000      -2.07474000      -0.22124000
H        5.25035000      -4.27831000      -1.05949000       0.17938000
H        5.42193000      -5.67212000      -2.16345000       0.20021000
H        5.57752000      -4.01039000      -2.79939000       0.17919000
