93
R5TS18majorsNMe2cNO2.xyz  (col5 = NBO charge)
O       -0.58115000       2.49060000      -2.60003000      -0.54154000
N       -1.09855000       1.46233000      -3.12000000       0.43496000
C       -0.62635000       0.21608000      -2.91832000      -0.15002000
C        0.52540000      -0.04622000      -2.14550000      -0.08231000
C        1.17779000      -1.35486000      -2.26718000      -0.15256000
O       -1.87973000       1.49809000      -0.00019000      -0.71423000
C       -0.67413000       1.26795000       0.13172000       0.82082000
C        0.01008000       0.00119000      -0.01833000      -0.48486000
C       -0.69836000      -1.25232000       0.13417000       0.81873000
O       -1.89067000      -1.47977000      -0.08344000      -0.70826000
C       -3.23509000      -2.05171000      -4.42369000      -0.23196000
C       -3.33822000      -2.15590000      -3.02339000       0.21968000
C       -2.94845000      -3.35147000      -2.38468000      -0.23149000
C       -2.39342000      -4.39122000      -3.11101000      -0.18039000
C       -2.24874000      -4.24946000      -4.49308000       0.02457000
C       -2.69264000      -3.10051000      -5.15501000      -0.16858000
N       -3.66772000      -1.08739000      -2.19152000      -0.66912000
C       -4.44466000       0.02269000      -2.42557000       0.37088000
S       -5.71647000       0.07320000      -3.53711000      -0.32526000
N       -4.09200000       1.03640000      -1.59979000      -0.67254000
C       -4.86770000       2.22032000      -1.28505000      -0.04710000
C       -4.05610000       3.50359000      -1.58003000      -0.01595000
C       -4.82371000       4.76436000      -1.16157000      -0.41436000
C       -5.18814000       4.70869000       0.33012000      -0.38532000
C       -6.01054000       3.45348000       0.64211000      -0.39312000
C       -5.25507000       2.19242000       0.20985000      -0.39692000
N       -3.59358000       3.56367000      -3.02532000      -0.51642000
C       -4.67719000       3.57081000      -4.05379000      -0.38664000
C       -2.62340000       4.67139000      -3.27716000      -0.36457000
O       -2.13269000       1.58018000      -3.89540000      -0.59169000
C        0.51573000      -2.47699000      -2.79782000      -0.15984000
C        1.12011000      -3.71808000      -2.88707000      -0.28855000
C        2.45308000      -3.91058000      -2.44816000       0.22078000
C        3.12386000      -2.78492000      -1.90488000      -0.28122000
C        2.49508000      -1.55110000      -1.82040000      -0.13816000
H       -5.77614000       2.19672000      -1.89293000       0.24148000
H       -4.33561000       2.08383000       0.79991000       0.21794000
H       -5.85668000       1.29347000       0.38179000       0.22335000
H       -6.24138000       3.40317000       1.71262000       0.21494000
H       -6.97294000       3.50810000       0.11309000       0.19957000
H       -4.26560000       4.70038000       0.92775000       0.20061000
H       -5.73816000       5.61589000       0.60596000       0.21320000
H       -5.74689000       4.84970000      -1.74991000       0.20925000
H       -4.22610000       5.65986000      -1.36437000       0.21826000
H       -3.12399000       3.42826000      -1.00964000       0.24105000
H       -3.12214000      -1.08449000      -1.32073000       0.45414000
H       -3.24653000       0.92436000      -1.02755000       0.45134000
H       -4.19635000       3.55609000      -5.03376000       0.22375000
H       -5.28345000       4.47313000      -3.95273000       0.20829000
H       -5.28197000       2.66816000      -3.95044000       0.24321000
H       -2.09148000       4.43498000      -4.19912000       0.23060000
H       -1.89833000       4.69995000      -2.46630000       0.22721000
H       -3.15363000       5.62093000      -3.36911000       0.20543000
H        1.03142000      -0.00933000       0.34220000       0.24843000
H       -3.01824000       2.67363000      -3.24156000       0.48660000
H       -1.21054000      -0.54110000      -3.41023000       0.22741000
H        1.16837000       0.80866000      -1.95898000       0.25216000
H        3.03723000      -0.71484000      -1.38422000       0.21651000
H        4.13953000      -2.87445000      -1.53923000       0.22346000
H        0.54926000      -4.53927000      -3.30243000       0.22801000
H       -0.50526000      -2.39466000      -3.14466000       0.21790000
H       -3.03596000      -3.42064000      -1.30693000       0.24470000
H       -3.52343000      -1.12979000      -4.91182000       0.25479000
C       -0.31210000       3.59640000       0.40023000      -0.04839000
C        0.85151000       4.53243000       0.67009000      -0.60282000
H       -0.75396000       3.77190000      -0.58546000       0.19471000
H       -1.10177000       3.69522000       1.15498000       0.18183000
H        0.50871000       5.57331000       0.66356000       0.20947000
H        1.62075000       4.41459000      -0.09954000       0.21142000
H        1.30260000       4.32226000       1.64525000       0.20915000
C       -0.36297000      -3.58564000       0.48154000      -0.04620000
C        0.78036000      -4.50126000       0.87720000      -0.60527000
H       -1.21082000      -3.65692000       1.17179000       0.18797000
H       -0.72170000      -3.81094000      -0.52721000       0.18891000
H        0.44770000      -5.54531000       0.86164000       0.21072000
H        1.13875000      -4.26495000       1.88444000       0.20887000
H        1.61156000      -4.38683000       0.17554000       0.21460000
O        0.20666000       2.25770000       0.42438000      -0.56752000
O        0.15347000      -2.24056000       0.49842000      -0.56387000
N        3.06179000      -5.14625000      -2.54763000      -0.49211000
C        2.25698000      -6.31042000      -2.89850000      -0.36605000
C        4.34810000      -5.36215000      -1.90669000      -0.36477000
H        2.90571000      -7.18585000      -2.96256000       0.20818000
H        1.46955000      -6.51297000      -2.15599000       0.18913000
H        1.77154000      -6.18154000      -3.87116000       0.21100000
H        5.10680000      -4.68152000      -2.31087000       0.20088000
H        4.30608000      -5.21791000      -0.81514000       0.18876000
H        4.68144000      -6.38226000      -2.10525000       0.20991000
H       -2.56130000      -3.02207000      -6.22739000       0.25194000
H       -2.05279000      -5.29755000      -2.62612000       0.24931000
N       -1.56073000      -5.29025000      -5.24409000       0.50155000
O       -1.61341000      -5.25714000      -6.47399000      -0.39253000
O       -0.93751000      -6.14920000      -4.60149000      -0.41983000
