87
R5TS3majorsNO2cNMe2.xyz  (col5 = NBO charge)
O       -0.64347000       2.63547000      -2.61473000      -0.49879000
N       -1.23020000       1.63937000      -3.10253000       0.45680000
C       -0.76635000       0.36196000      -2.94954000      -0.15667000
C        0.40402000       0.07933000      -2.25192000      -0.10245000
C        1.03607000      -1.24703000      -2.38059000      -0.04361000
O       -1.87865000       1.49660000      -0.01498000      -0.71160000
C       -0.67786000       1.26330000       0.14422000       0.80596000
C        0.00854000       0.00232000      -0.00858000      -0.49296000
C       -0.69219000      -1.25597000       0.10659000       0.80155000
O       -1.89265000      -1.47109000      -0.06333000      -0.69896000
C       -3.20141000      -2.02830000      -4.47371000      -0.20605000
C       -3.37350000      -2.21878000      -3.09784000       0.10727000
C       -3.05688000      -3.46764000      -2.55278000      -0.20457000
C       -2.55924000      -4.49646000      -3.34663000      -0.27891000
C       -2.37321000      -4.32105000      -4.73691000       0.18806000
C       -2.71284000      -3.05608000      -5.27443000      -0.26761000
N       -3.67045000      -1.16613000      -2.20205000      -0.66221000
C       -4.51939000      -0.11499000      -2.33046000       0.37194000
S       -5.81251000      -0.04139000      -3.42367000      -0.35506000
N       -4.20552000       0.87812000      -1.44481000      -0.69323000
C       -5.07825000       1.94155000      -0.99615000      -0.04945000
C       -4.39169000       3.31363000      -1.17722000      -0.01365000
C       -5.27028000       4.46138000      -0.66865000      -0.41537000
C       -5.61120000       4.25064000       0.81586000      -0.38481000
C       -6.29958000       2.89727000       1.03293000      -0.39368000
C       -5.43567000       1.75133000       0.49291000      -0.39577000
N       -3.93592000       3.51732000      -2.61287000      -0.50687000
C       -5.02125000       3.54330000      -3.64306000      -0.38738000
C       -3.02363000       4.69027000      -2.77335000      -0.36455000
O       -2.30439000       1.78042000      -3.78876000      -0.55443000
C        0.33898000      -2.35223000      -2.90384000      -0.19008000
C        0.94328000      -3.59720000      -2.99563000      -0.18728000
C        2.25889000      -3.74515000      -2.56206000       0.06418000
C        2.98434000      -2.67032000      -2.04519000      -0.18052000
C        2.36577000      -1.42988000      -1.95903000      -0.16937000
H       -5.99302000       1.89378000      -1.59384000       0.24270000
H       -4.50090000       1.68086000       1.06587000       0.21275000
H       -5.94815000       0.78890000       0.59476000       0.22490000
H       -6.50692000       2.74235000       2.09822000       0.21490000
H       -7.27140000       2.89796000       0.51876000       0.20031000
H       -4.68583000       4.29049000       1.40782000       0.20032000
H       -6.24709000       5.07249000       1.16467000       0.21357000
H       -6.20331000       4.49981000      -1.24582000       0.21021000
H       -4.76418000       5.42431000      -0.80285000       0.21758000
H       -3.45432000       3.28065000      -0.61065000       0.24014000
H       -3.07403000      -1.16704000      -1.36961000       0.44575000
H       -3.34820000       0.77261000      -0.89454000       0.44748000
H       -4.54012000       3.63259000      -4.61862000       0.22480000
H       -5.67428000       4.40008000      -3.46897000       0.20970000
H       -5.57065000       2.59972000      -3.61000000       0.24771000
H       -2.47315000       4.55176000      -3.70359000       0.23398000
H       -2.30963000       4.69900000      -1.95155000       0.22346000
H       -3.60617000       5.61253000      -2.79457000       0.20888000
H        1.04521000      -0.00860000       0.30375000       0.24571000
H       -3.33441000       2.68847000      -2.88680000       0.48777000
H       -1.41277000      -0.37381000      -3.39524000       0.23774000
H        1.05655000       0.91856000      -2.03599000       0.25634000
H        2.91317000      -0.58768000      -1.54502000       0.22950000
H        4.00607000      -2.82052000      -1.71938000       0.25315000
H        0.39832000      -4.44270000      -3.39227000       0.25223000
H       -0.68555000      -2.26145000      -3.23807000       0.24226000
H       -3.16655000      -3.61683000      -1.48292000       0.22908000
H       -3.42578000      -1.06000000      -4.90730000       0.24064000
C       -0.33387000       3.57777000       0.45636000      -0.22571000
H       -0.67378000       3.83621000      -0.55073000       0.19315000
H       -1.16723000       3.66686000       1.16108000       0.18272000
C       -0.39696000      -3.58467000       0.39522000      -0.22674000
H       -1.17853000      -3.66623000       1.15628000       0.19050000
H       -0.82144000      -3.82673000      -0.58287000       0.18922000
O        0.20100000       2.25327000       0.45677000      -0.55917000
O        0.17125000      -2.26814000       0.38609000      -0.55930000
H        0.48835000       4.22801000       0.75986000       0.19196000
H        0.43193000      -4.25605000       0.62345000       0.19351000
N        2.89171000      -5.06628000      -2.65125000       0.50150000
O        4.05734000      -5.17376000      -2.26846000      -0.39219000
O        2.21959000      -5.99739000      -3.10271000      -0.39743000
H       -2.58210000      -2.85756000      -6.33107000       0.22352000
H       -2.30989000      -5.43721000      -2.87098000       0.22271000
N       -1.87906000      -5.34419000      -5.54233000      -0.51008000
C       -1.40596000      -5.01323000      -6.87663000      -0.36360000
C       -1.34252000      -6.54328000      -4.91751000      -0.36465000
H       -1.02363000      -5.91667000      -7.35571000       0.20755000
H       -2.22305000      -4.63136000      -7.50009000       0.19875000
H       -0.60184000      -4.25922000      -6.86829000       0.18573000
H       -0.45146000      -6.35478000      -4.29599000       0.18573000
H       -2.10124000      -7.02526000      -4.29104000       0.20047000
H       -1.06443000      -7.25638000      -5.69636000       0.20844000
