83
R5TS3minor.xyz  (col5 = NBO charge)
O        0.27241000      -3.28457000       3.15479000      -0.51667000
N       -0.04567000      -2.09069000       2.90886000       0.44650000
C        0.90957000      -1.17572000       2.58229000      -0.14446000
C        0.54973000       0.11508000       2.17403000      -0.08815000
C        1.54517000       1.19754000       2.09108000      -0.09034000
O       -1.85487000      -1.56423000      -0.06153000      -0.70984000
C       -0.65307000      -1.28627000      -0.09702000       0.80972000
C        0.00000000      -0.00000000      -0.00000000      -0.50522000
C       -0.72201000       1.24067000      -0.17201000       0.80870000
O       -1.89564000       1.47639000       0.13638000      -0.70864000
C        2.88491000       0.96332000       1.73587000      -0.18635000
C        1.14227000       2.51352000       2.36880000      -0.18781000
C        2.05456000       3.56565000       2.31487000      -0.20743000
C        3.38382000       3.31900000       1.96903000      -0.19807000
C        3.79464000       2.01474000       1.67586000      -0.20615000
O       -1.27663000      -1.72112000       2.95616000      -0.57019000
N       -3.08145000      -3.70290000       2.81288000      -0.51537000
C       -2.29410000      -4.97397000       2.76685000      -0.37393000
C       -3.96971000      -3.52241000       1.58722000      -0.01017000
C       -4.75000000      -2.19089000       1.62940000      -0.05400000
C       -5.52295000      -2.01183000       0.30699000      -0.39428000
C       -6.46994000      -3.18753000       0.04075000      -0.39425000
C       -5.70615000      -4.51692000       0.05227000      -0.38512000
C       -4.92419000      -4.70224000       1.36428000      -0.41506000
N       -3.85767000      -1.07395000       1.85435000      -0.66927000
C       -4.01923000      -0.09883000       2.78315000       0.37009000
N       -3.16349000       0.94534000       2.55919000      -0.66480000
C       -2.85359000       2.03770000       3.37862000       0.18563000
S       -5.16761000      -0.15242000       4.02983000      -0.33619000
C       -3.76499000      -3.56774000       4.13646000      -0.38685000
H       -5.46853000      -2.20654000       2.45364000       0.24596000
H       -4.79780000      -1.91036000      -0.51196000       0.21221000
H       -6.07440000      -1.06783000       0.36839000       0.22604000
H       -6.98155000      -3.05087000      -0.91898000       0.21580000
H       -7.25012000      -3.20919000       0.81492000       0.20130000
H       -5.00072000      -4.54076000      -0.79038000       0.20074000
H       -6.39110000      -5.36163000      -0.08435000       0.21452000
H       -5.63161000      -4.76930000       2.20168000       0.21061000
H       -4.37255000      -5.64724000       1.32836000       0.21899000
H       -3.25075000      -3.46104000       0.76216000       0.23755000
H       -2.73944000       0.99308000       1.62334000       0.45036000
H       -3.09355000      -0.98444000       1.17508000       0.45180000
H       -3.00419000      -3.68841000       4.90989000       0.22518000
H       -4.52477000      -4.34524000       4.23787000       0.21098000
H       -4.21416000      -2.57706000       4.22590000       0.24324000
H       -1.43403000      -4.85160000       3.42401000       0.24667000
H       -1.93812000      -5.13528000       1.74896000       0.21554000
H       -2.92250000      -5.80863000       3.08060000       0.21170000
H        1.02344000       0.01080000      -0.35119000       0.25285000
H       -2.35655000      -2.91716000       2.79681000       0.48855000
H       -0.45868000       0.41756000       2.43208000       0.25256000
H        1.90992000      -1.57932000       2.56230000       0.23082000
H        0.10806000       2.71137000       2.63376000       0.22031000
H        1.71895000       4.57299000       2.53683000       0.22595000
H        4.09657000       4.13783000       1.92168000       0.21953000
H        4.82627000       1.81882000       1.39626000       0.22035000
H        3.20972000      -0.04277000       1.48567000       0.21985000
C       -2.54755000       3.24883000       2.74406000      -0.19961000
C       -2.13308000       4.34772000       3.49643000      -0.14699000
C       -2.03391000       4.27216000       4.88313000      -0.17828000
C       -2.34799000       3.06302000       5.50738000      -0.13859000
C       -2.74297000       1.94729000       4.77419000      -0.17111000
H       -2.61931000       3.31537000       1.66422000       0.25602000
C       -1.72709000       5.59674000       2.76912000       1.07992000
H       -1.71289000       5.12753000       5.46428000       0.25199000
C       -2.29253000       2.97456000       7.00996000       1.07918000
H       -2.95267000       1.01167000       5.27297000       0.26070000
F       -0.48402000       5.45982000       2.21446000      -0.37100000
F       -1.67454000       6.67487000       3.57458000      -0.35212000
F       -2.56007000       5.88173000       1.74544000      -0.35372000
F       -3.47037000       3.33015000       7.57116000      -0.35574000
F       -1.34839000       3.79747000       7.52341000      -0.36055000
F       -2.01381000       1.72202000       7.43227000      -0.35636000
O        0.29994000      -2.25417000      -0.20826000      -0.55862000
O        0.08623000       2.20834000      -0.66480000      -0.54788000
C       -0.12379000      -3.61733000      -0.15684000      -0.23204000
H       -0.21849000      -3.92673000       0.88982000       0.18914000
H       -1.06924000      -3.75858000      -0.68761000       0.18995000
C       -0.46149000       3.53330000      -0.73149000      -0.22743000
H       -1.43442000       3.52999000      -1.22941000       0.19346000
H       -0.56335000       3.95850000       0.26998000       0.18622000
H        0.66897000      -4.19637000      -0.63433000       0.19538000
H        0.26126000       4.11585000      -1.30419000       0.19608000
