86
R5TS3minorsCNcNMe2.xyz  (col5 = NBO charge)
O       -0.58814000      -3.32349000       3.07130000      -0.53382000
N       -0.60106000      -2.07598000       2.87152000       0.43984000
C        0.54044000      -1.43801000       2.49092000      -0.16855000
C        0.49468000      -0.09111000       2.07375000      -0.13095000
C        1.72532000       0.73044000       2.08958000      -0.03268000
O       -1.85437000      -1.54210000       0.00099000      -0.67602000
C       -0.66777000      -1.28139000      -0.16626000       0.81889000
C        0.01442000      -0.00262000      -0.00595000      -0.47867000
C       -0.70448000       1.25063000      -0.09470000       0.81084000
O       -1.91339000       1.44205000       0.07175000      -0.70390000
C        2.98168000       0.21608000       1.72581000      -0.18613000
C        1.63712000       2.06882000       2.50326000      -0.19104000
C        2.77045000       2.86827000       2.58081000      -0.15091000
C        4.02331000       2.34218000       2.22713000      -0.19448000
C        4.12045000       1.00788000       1.79105000      -0.15173000
O       -1.67992000      -1.40129000       3.03847000      -0.58097000
N       -3.85175000      -2.67396000       2.07104000      -0.52061000
C       -3.28934000      -3.95113000       1.53333000      -0.38069000
C       -4.82022000      -2.02049000       1.10285000      -0.00665000
C       -5.17760000      -0.58707000       1.54219000      -0.05615000
C       -6.05111000       0.07461000       0.45791000      -0.39156000
C       -7.31593000      -0.74497000       0.17188000      -0.39441000
C       -6.96190000      -2.18802000      -0.21005000      -0.38533000
C       -6.08717000      -2.85143000       0.86755000      -0.41447000
N       -3.98478000       0.18795000       1.80351000      -0.67975000
C       -3.74935000       0.91415000       2.93694000       0.37108000
N       -2.76077000       1.83489000       2.75521000      -0.66506000
C       -1.88955000       2.37585000       3.73543000       0.10219000
S       -4.60457000       0.73234000       4.38505000      -0.33631000
C       -4.34578000      -2.86678000       3.47189000      -0.38613000
H       -5.74606000      -0.61627000       2.47610000       0.24491000
H       -5.45650000       0.18519000      -0.46035000       0.20473000
H       -6.30471000       1.08400000       0.79864000       0.22475000
H       -7.90076000      -0.27242000      -0.62595000       0.21427000
H       -7.95220000      -0.75264000       1.06820000       0.20187000
H       -6.41852000      -2.19154000      -1.16564000       0.20028000
H       -7.86981000      -2.78342000      -0.36059000       0.21391000
H       -6.65956000      -2.92562000       1.80135000       0.21098000
H       -5.83215000      -3.87111000       0.55943000       0.21808000
H       -4.24322000      -1.95590000       0.17472000       0.23724000
H       -2.45801000       1.96209000       1.78973000       0.42871000
H       -3.31472000       0.28510000       1.03807000       0.44607000
H       -3.49462000      -3.22329000       4.05306000       0.23375000
H       -5.15513000      -3.59888000       3.47754000       0.20639000
H       -4.66858000      -1.90638000       3.87827000       0.24314000
H       -2.42802000      -4.20628000       2.15123000       0.24645000
H       -2.96396000      -3.77368000       0.50977000       0.22598000
H       -4.04858000      -4.73338000       1.57557000       0.20730000
H        1.02260000       0.02143000      -0.40015000       0.25656000
H       -3.02461000      -2.03139000       2.19488000       0.50796000
H       -0.40450000       0.42889000       2.37994000       0.26179000
H        1.40232000      -2.08264000       2.41270000       0.22693000
H        0.67615000       2.48095000       2.78515000       0.23910000
H        2.68870000       3.89749000       2.91581000       0.23247000
H        5.08789000       0.60516000       1.50873000       0.23485000
H        3.06360000      -0.80850000       1.37511000       0.22884000
C       -1.53074000       3.72270000       3.65562000      -0.21257000
C       -0.53154000       4.25163000       4.47249000      -0.28199000
C        0.12978000       3.44574000       5.42522000       0.19475000
C       -0.27291000       2.09108000       5.51545000      -0.26054000
C       -1.25590000       1.56718000       4.68746000      -0.19531000
H       -2.03193000       4.36366000       2.93479000       0.22330000
H       -1.51328000       0.51493000       4.73884000       0.24683000
O        0.25755000      -2.24003000      -0.43278000      -0.55807000
O        0.15202000       2.28292000      -0.29535000      -0.54932000
C       -0.18592000      -3.60121000      -0.36469000      -0.23241000
H       -0.41273000      -3.86668000       0.67283000       0.19828000
H       -1.06510000      -3.75845000      -0.99648000       0.18517000
C       -0.41111000       3.59841000      -0.20279000      -0.22706000
H       -1.25718000       3.71232000      -0.88548000       0.19538000
H       -0.74437000       3.80023000       0.82094000       0.18478000
H        0.64983000      -4.19946000      -0.73077000       0.19518000
H        0.39707000       4.27935000      -0.47173000       0.19812000
C        5.19526000       3.16183000       2.30994000       0.32553000
N        6.14402000       3.83178000       2.38235000      -0.36735000
N        1.14210000       3.95368000       6.23788000      -0.51073000
C        2.04400000       3.01029000       6.88453000      -0.36483000
C        1.67327000       5.27230000       5.93985000      -0.36278000
H        2.80759000       3.56463000       7.43382000       0.20700000
H        1.50719000       2.38855000       7.60944000       0.20036000
H        2.54616000       2.34448000       6.16415000       0.18835000
H        2.12796000       5.33900000       4.93579000       0.17851000
H        0.88650000       6.03171000       6.00658000       0.20124000
H        2.43691000       5.52743000       6.67734000       0.20903000
H        0.20654000       1.42362000       6.22052000       0.22492000
H       -0.27283000       5.29673000       4.35607000       0.22305000
