85
R5TS18minorcNO2.xyz  (col5 = NBO charge)
O        0.68699000      -3.35299000       3.01247000      -0.49879000
N        0.29094000      -2.17710000       2.81627000       0.45253000
C        1.17075000      -1.18344000       2.48909000      -0.13771000
C        0.69608000       0.09294000       2.19187000      -0.07576000
C        1.57901000       1.26366000       2.10426000      -0.09552000
O       -1.85819000      -1.56036000      -0.05640000      -0.71781000
C       -0.65390000      -1.28163000      -0.09290000       0.80364000
C        0.00142000      -0.00090000      -0.02073000      -0.51816000
C       -0.71352000       1.24415000      -0.14474000       0.80340000
O       -1.90139000       1.46530000       0.12059000      -0.71058000
C        2.87447000       1.21169000       1.56382000      -0.17970000
C        1.09943000       2.48899000       2.59311000      -0.18593000
C        1.89069000       3.63498000       2.56154000      -0.21213000
C        3.17758000       3.57125000       2.02192000      -0.19730000
C        3.66388000       2.35775000       1.52153000      -0.20762000
O       -0.95587000      -1.88113000       2.91805000      -0.56339000
N       -2.73733000      -3.86679000       3.01335000      -0.51631000
C       -1.93932000      -5.13033000       2.92047000      -0.37565000
C       -3.74403000      -3.71436000       1.87843000      -0.00866000
C       -4.53543000      -2.39171000       1.97574000      -0.05309000
C       -5.44613000      -2.25290000       0.73792000      -0.39458000
C       -6.39548000      -3.44723000       0.59053000      -0.39424000
C       -5.61142000      -4.76371000       0.54405000      -0.38521000
C       -4.69729000      -4.91154000       1.77217000      -0.41510000
N       -3.64624000      -1.25217000       2.07581000      -0.66949000
C       -3.75005000      -0.24190000       2.97456000       0.36887000
N       -3.02171000       0.85322000       2.58687000      -0.67048000
C       -2.59894000       1.95303000       3.34112000       0.21070000
S       -4.70423000      -0.30224000       4.37378000      -0.33302000
C       -3.28909000      -3.70700000       4.39464000      -0.38758000
H       -5.16179000      -2.39873000       2.87207000       0.24533000
H       -4.81203000      -2.15518000      -0.15383000       0.21324000
H       -6.00460000      -1.31648000       0.83967000       0.22609000
H       -7.00531000      -3.33487000      -0.31328000       0.21628000
H       -7.09136000      -3.46742000       1.44132000       0.20119000
H       -4.99548000      -4.79126000      -0.36585000       0.20141000
H       -6.29141000      -5.62172000       0.49240000       0.21482000
H       -5.31507000      -4.97242000       2.67812000       0.21071000
H       -4.13566000      -5.84855000       1.69860000       0.21907000
H       -3.11373000      -3.65803000       0.98300000       0.23366000
H       -2.72778000       0.89813000       1.59966000       0.45437000
H       -2.98001000      -1.14842000       1.29927000       0.45170000
H       -2.45744000      -3.81845000       5.09299000       0.22406000
H       -4.03683000      -4.48003000       4.58262000       0.21143000
H       -3.72543000      -2.71278000       4.50949000       0.24448000
H       -1.00388000      -4.96617000       3.45568000       0.24545000
H       -1.71171000      -5.33838000       1.87477000       0.21619000
H       -2.50648000      -5.95745000       3.34953000       0.21370000
H        1.02639000       0.01101000      -0.36538000       0.24859000
H       -2.02472000      -3.07859000       2.90876000       0.48843000
H       -0.32338000       0.29396000       2.49776000       0.25537000
H        2.19625000      -1.50915000       2.40523000       0.23301000
H        0.10282000       2.53375000       3.01282000       0.22142000
H        1.49837000       4.56892000       2.95652000       0.22577000
H        3.79999000       4.46128000       1.98875000       0.22129000
H        4.66165000       2.30853000       1.09409000       0.22090000
H        3.25181000       0.27793000       1.15524000       0.22037000
C       -2.48041000       3.18516000       2.66879000      -0.23142000
C       -1.90136000       4.27791000       3.29662000      -0.18311000
C       -1.46303000       4.14625000       4.61522000       0.02998000
C       -1.61995000       2.94925000       5.31778000      -0.17364000
C       -2.17970000       1.85050000       4.67983000      -0.22068000
H       -2.80540000       3.25282000       1.63750000       0.24827000
H       -2.26734000       0.90389000       5.19622000       0.24866000
O        0.29196000      -2.26123000      -0.18477000      -0.57283000
O        0.11984000       2.23745000      -0.54055000      -0.56596000
C       -0.17075000      -3.61610000      -0.13870000      -0.04378000
C        1.05407000      -4.51030000      -0.10163000      -0.60679000
H       -0.77273000      -3.74411000       0.76508000       0.17301000
H       -0.81272000      -3.81281000      -1.00564000       0.18633000
H        0.75136000      -5.56388000      -0.08868000       0.20771000
H        1.63295000      -4.30336000       0.80256000       0.22197000
H        1.68441000      -4.34285000      -0.98074000       0.20982000
C       -0.39830000       3.58129000      -0.50773000      -0.04490000
C        0.71800000       4.49380000      -0.97943000      -0.60566000
H       -1.28621000       3.64380000      -1.14606000       0.18901000
H       -0.70050000       3.81703000       0.51777000       0.18369000
H        0.38283000       5.53680000      -0.96399000       0.21136000
H        1.02068000       4.24007000      -2.00055000       0.20880000
H        1.58780000       4.39498000      -0.32313000       0.21530000
H       -1.77215000       5.22130000       2.78060000       0.25131000
H       -1.26375000       2.88167000       6.33839000       0.25240000
N       -0.77301000       5.26480000       5.25168000       0.50136000
O       -0.57284000       5.20836000       6.46598000      -0.39545000
O       -0.41136000       6.20142000       4.52995000      -0.40846000
