85
R5TS3minorsNO2.xyz  (col5 = NBO charge)
O        0.22371000      -3.34132000       3.14263000      -0.50085000
N       -0.08494000      -2.14335000       2.91807000       0.45263000
C        0.88750000      -1.23516000       2.59773000      -0.14465000
C        0.54477000       0.05824000       2.20252000      -0.10334000
C        1.55655000       1.12424000       2.10382000      -0.04430000
O       -1.85416000      -1.56789000      -0.05798000      -0.70871000
C       -0.65349000      -1.28768000      -0.09923000       0.80723000
C       -0.00173000      -0.00084000      -0.00465000      -0.50413000
C       -0.71948000       1.24444000      -0.16278000       0.80405000
O       -1.89674000       1.47853000       0.13046000      -0.70713000
C        2.89111000       0.86422000       1.74043000      -0.18277000
C        1.17357000       2.44999000       2.36786000      -0.18666000
C        2.09008000       3.49192000       2.28777000      -0.17790000
C        3.40358000       3.19722000       1.93129000       0.06855000
C        3.81784000       1.89363000       1.65281000      -0.17901000
O       -1.30559000      -1.75861000       2.97677000      -0.55518000
N       -3.14575000      -3.73080000       2.73623000      -0.51278000
C       -2.36132000      -5.00144000       2.63789000      -0.37425000
C       -4.05133000      -3.51185000       1.52860000      -0.00883000
C       -4.80408000      -2.16662000       1.60925000      -0.05399000
C       -5.60115000      -1.95014000       0.30693000      -0.39363000
C       -6.57378000      -3.10429000       0.03865000      -0.39454000
C       -5.83300000      -4.44634000       0.00877000      -0.38515000
C       -5.02943000      -4.67100000       1.30147000      -0.41568000
N       -3.88288000      -1.07309000       1.83253000      -0.67039000
C       -3.99042000      -0.12095000       2.79327000       0.36948000
N       -3.12748000       0.91496000       2.56081000      -0.66754000
C       -2.74028000       1.95617000       3.41373000       0.18311000
S       -5.08493000      -0.18554000       4.08508000      -0.33014000
C       -3.81078000      -3.63731000       4.07409000      -0.38747000
H       -5.50442000      -2.18103000       2.44900000       0.24608000
H       -4.89193000      -1.84663000      -0.52584000       0.21115000
H       -6.13392000      -0.99773000       0.39625000       0.22666000
H       -7.10231000      -2.94024000      -0.90740000       0.21659000
H       -7.33831000      -3.12757000       0.82814000       0.20176000
H       -5.14492000      -4.46577000      -0.84817000       0.20101000
H       -6.53501000      -5.27635000      -0.13030000       0.21535000
H       -5.72234000      -4.74196000       2.15035000       0.21143000
H       -4.49485000      -5.62432000       1.23706000       0.21950000
H       -3.34458000      -3.44841000       0.69299000       0.23649000
H       -2.74107000       0.98591000       1.61055000       0.45017000
H       -3.13135000      -0.98487000       1.13959000       0.45071000
H       -3.03804000      -3.77945000       4.83179000       0.22599000
H       -4.56696000      -4.41956000       4.16194000       0.21205000
H       -4.25810000      -2.64928000       4.19857000       0.24387000
H       -1.49521000      -4.90465000       3.29140000       0.24635000
H       -2.01780000      -5.12829000       1.61085000       0.21617000
H       -2.98888000      -5.84440000       2.92952000       0.21337000
H        1.02278000       0.01031000      -0.35264000       0.25161000
H       -2.42571000      -2.94862000       2.73817000       0.48794000
H       -0.45992000       0.37633000       2.45433000       0.25665000
H        1.88017000      -1.65681000       2.56984000       0.23302000
H        0.14620000       2.66804000       2.63814000       0.23063000
H        1.79702000       4.51358000       2.48847000       0.25963000
H        4.84659000       1.70932000       1.36956000       0.25444000
H        3.20099000      -0.14831000       1.50195000       0.23077000
C       -2.46415000       3.19899000       2.83032000      -0.19976000
C       -1.97026000       4.24363000       3.61252000      -0.14738000
C       -1.76169000       4.07997000       4.97932000      -0.17743000
C       -2.04737000       2.83886000       5.55319000      -0.13829000
C       -2.52015000       1.77689000       4.78739000      -0.17042000
H       -2.61858000       3.33241000       1.76527000       0.25549000
C       -1.59255000       5.52736000       2.93087000       1.08003000
H       -1.37740000       4.89276000       5.58284000       0.25377000
C       -1.87001000       2.65451000       7.03798000       1.07909000
H       -2.70388000       0.81308000       5.24133000       0.26069000
F       -0.40147000       5.39356000       2.26855000      -0.37221000
F       -1.44533000       6.55046000       3.79153000      -0.34945000
F       -2.49678000       5.89097000       1.99771000      -0.35235000
F       -2.99306000       2.98242000       7.71480000      -0.35460000
F       -0.87576000       3.43426000       7.52128000      -0.35936000
F       -1.57460000       1.37449000       7.35406000      -0.35644000
O        0.30148000      -2.25319000      -0.21188000      -0.55820000
O        0.10039000       2.21766000      -0.62610000      -0.55061000
C       -0.12061000      -3.61810000      -0.18163000      -0.23193000
H       -0.21733000      -3.94419000       0.85967000       0.18839000
H       -1.06521000      -3.75160000      -0.71568000       0.19099000
C       -0.45052000       3.54197000      -0.70381000      -0.22764000
H       -1.40899000       3.53531000      -1.22858000       0.19505000
H       -0.58326000       3.96353000       0.29560000       0.18555000
H        0.67347000      -4.18855000      -0.66686000       0.19658000
H        0.28570000       4.12891000      -1.25413000       0.19784000
N        4.38111000       4.29201000       1.83397000       0.50068000
O        5.53605000       4.00218000       1.51847000      -0.39422000
O        3.98759000       5.43372000       2.07263000      -0.38929000
