84
R5TS18minorsCNcPh.xyz  (col5 = NBO charge)
O        0.64724000      -3.41283000       3.00364000      -0.48727000
N        0.26211000      -2.23114000       2.83271000       0.45787000
C        1.15860000      -1.24467000       2.50407000      -0.13703000
C        0.70216000       0.03595000       2.21874000      -0.09094000
C        1.60728000       1.18656000       2.09897000      -0.05485000
O       -1.85827000      -1.55884000      -0.05362000      -0.71560000
C       -0.65504000      -1.28128000      -0.09401000       0.79977000
C        0.00191000      -0.00119000      -0.02497000      -0.51950000
C       -0.71211000       1.24616000      -0.13700000       0.79750000
O       -1.90209000       1.46171000       0.11542000      -0.70171000
C        2.89872000       1.08442000       1.55234000      -0.18129000
C        1.15647000       2.44066000       2.54367000      -0.18442000
C        1.96967000       3.56265000       2.45580000      -0.14994000
C        3.25640000       3.45146000       1.90364000      -0.19052000
C        3.71629000       2.20078000       1.45070000      -0.14796000
O       -0.97160000      -1.91583000       2.95776000      -0.54661000
N       -2.83247000      -3.85366000       2.97071000      -0.51565000
C       -2.06114000      -5.12874000       2.82613000      -0.37705000
C       -3.85461000      -3.64746000       1.85793000      -0.00443000
C       -4.58847000      -2.29523000       1.99326000      -0.05402000
C       -5.52234000      -2.10275000       0.78042000      -0.39453000
C       -6.51873000      -3.25882000       0.63618000      -0.39455000
C       -5.78608000      -4.60283000       0.54816000      -0.38531000
C       -4.85189000      -4.80752000       1.75299000      -0.41614000
N       -3.64714000      -1.20092000       2.09067000      -0.68033000
C       -3.66935000      -0.20666000       3.02047000       0.37406000
N       -2.89819000       0.85091000       2.64220000      -0.67272000
C       -2.46144000       1.95176000       3.41036000       0.15970000
S       -4.57342000      -0.27186000       4.45562000      -0.34962000
C       -3.35687000      -3.72264000       4.36670000      -0.38997000
H       -5.19289000      -2.28929000       2.90481000       0.24599000
H       -4.90707000      -2.01402000      -0.12560000       0.21137000
H       -6.04237000      -1.14788000       0.90995000       0.22682000
H       -7.14586000      -3.10868000      -0.25020000       0.21616000
H       -7.19405000      -3.26868000       1.50358000       0.20131000
H       -5.19178000      -4.63631000      -0.37588000       0.20120000
H       -6.49900000      -5.43374000       0.49646000       0.21474000
H       -5.45305000      -4.86117000       2.67038000       0.21142000
H       -4.32697000      -5.76346000       1.65186000       0.21848000
H       -3.23790000      -3.60079000       0.95203000       0.23035000
H       -2.63517000       0.90758000       1.64954000       0.44860000
H       -3.00504000      -1.10326000       1.29572000       0.44789000
H       -2.51483000      -3.87050000       5.04557000       0.22397000
H       -4.11595000      -4.48665000       4.54487000       0.21141000
H       -3.76868000      -2.72162000       4.51604000       0.24789000
H       -1.11022000      -4.99639000       3.34316000       0.24536000
H       -1.86527000      -5.31492000       1.76984000       0.21443000
H       -2.63359000      -5.95558000       3.24849000       0.21595000
H        1.02807000       0.00984000      -0.36600000       0.24608000
H       -2.11153000      -3.07942000       2.87948000       0.48861000
H       -0.31231000       0.25873000       2.52504000       0.26276000
H        2.17557000      -1.59174000       2.40392000       0.23358000
H        0.16378000       2.53488000       2.96685000       0.24129000
H        1.60921000       4.52380000       2.80751000       0.23733000
H        4.70757000       2.11965000       1.01668000       0.23607000
H        3.25214000       0.12837000       1.17754000       0.22904000
C       -2.44644000       3.21220000       2.79552000      -0.23468000
C       -1.91390000       4.31251000       3.46822000      -0.21526000
C       -1.40158000       4.16910000       4.75983000      -0.23348000
C       -1.42272000       2.91183000       5.37108000      -0.20598000
C       -1.94123000       1.80340000       4.70335000      -0.22154000
H       -2.83320000       3.30881000       1.78658000       0.23616000
H       -0.99084000       5.02654000       5.28548000       0.21925000
H       -1.94077000       0.82378000       5.16557000       0.23749000
O        0.29059000      -2.26314000      -0.18413000      -0.57425000
O        0.12552000       2.24894000      -0.50789000      -0.57007000
C       -0.17938000      -3.61652000      -0.15402000      -0.04243000
C        1.04023000      -4.51805000      -0.12466000      -0.60680000
H       -0.78635000      -3.75225000       0.74547000       0.16876000
H       -0.81937000      -3.79948000      -1.02535000       0.18746000
H        0.73126000      -5.56981000      -0.12556000       0.20863000
H        1.61868000      -4.32699000       0.78329000       0.22094000
H        1.67382000      -4.34340000      -1.00005000       0.21058000
C       -0.41618000       3.58471000      -0.48843000      -0.04646000
C        0.68171000       4.51430000      -0.97057000      -0.60388000
H       -1.30345000       3.62474000      -1.12896000       0.19107000
H       -0.73015000       3.82310000       0.53361000       0.18485000
H        0.32531000       5.55024000      -0.96933000       0.21276000
H        0.99017000       4.25437000      -1.98824000       0.21038000
H        1.55695000       4.44668000      -0.31760000       0.20999000
C        4.09242000       4.60908000       1.78882000       0.32302000
N        4.76779000       5.55172000       1.69223000      -0.36123000
H       -1.01863000       2.78776000       6.37210000       0.22038000
H       -1.90590000       5.28418000       2.98114000       0.21925000
