83
R5TS3majorsOMecNO2.xyz  (col5 = NBO charge)
O       -0.66812000       2.43680000      -2.64115000      -0.52978000
N       -1.17912000       1.39603000      -3.13716000       0.44301000
C       -0.66695000       0.15828000      -2.93505000      -0.15556000
C        0.49734000      -0.05329000      -2.17892000      -0.08094000
C        1.20016000      -1.34250000      -2.26262000      -0.13168000
O       -1.87962000       1.50003000       0.00430000      -0.71420000
C       -0.67371000       1.26718000       0.12444000       0.81525000
C        0.00802000       0.00057000      -0.01381000      -0.49155000
C       -0.69817000      -1.25186000       0.13437000       0.81245000
O       -1.88933000      -1.48078000      -0.08537000      -0.70757000
C       -3.36052000      -2.00115000      -4.43480000      -0.23111000
C       -3.38965000      -2.13295000      -3.03390000       0.21525000
C       -2.94176000      -3.32955000      -2.43811000      -0.23326000
C       -2.42366000      -4.35342000      -3.21425000      -0.18185000
C       -2.36993000      -4.19082000      -4.59995000       0.02663000
C       -2.85400000      -3.03297000      -5.21440000      -0.17110000
N       -3.70685000      -1.08697000      -2.16725000      -0.66851000
C       -4.50581000       0.01461000      -2.35509000       0.37107000
S       -5.81844000       0.06845000      -3.41875000      -0.32425000
N       -4.13646000       1.02138000      -1.52694000      -0.67316000
C       -4.89547000       2.21211000      -1.20065000      -0.04813000
C       -4.08697000       3.48647000      -1.54186000      -0.01489000
C       -4.83311000       4.75835000      -1.11953000      -0.41515000
C       -5.14863000       4.72688000       0.38423000      -0.38516000
C       -5.96634000       3.48098000       0.74287000      -0.39322000
C       -5.23229000       2.20879000       0.30622000      -0.39688000
N       -3.67136000       3.51975000      -3.00452000      -0.51526000
C       -4.78941000       3.52819000      -3.99693000      -0.38712000
C       -2.69858000       4.61418000      -3.30410000      -0.36441000
O       -2.23395000       1.48231000      -3.87813000      -0.57535000
C        0.59877000      -2.50048000      -2.79813000      -0.17163000
C        1.27196000      -3.70947000      -2.84593000      -0.25589000
C        2.58256000      -3.80320000      -2.34828000       0.35037000
C        3.20410000      -2.66402000      -1.81560000      -0.30165000
C        2.51040000      -1.45699000      -1.77800000      -0.14003000
H       -5.82413000       2.18542000      -1.77709000       0.24227000
H       -4.29459000       2.10366000       0.86740000       0.21809000
H       -5.83278000       1.31621000       0.51157000       0.22399000
H       -6.16185000       3.44916000       1.82104000       0.21535000
H       -6.94543000       3.53268000       0.24521000       0.19990000
H       -4.20699000       4.72320000       0.95138000       0.20041000
H       -5.68484000       5.64113000       0.66365000       0.21369000
H       -5.77485000       4.83957000      -1.67814000       0.20990000
H       -4.23812000       5.64756000      -1.35531000       0.21849000
H       -3.13609000       3.41379000      -1.00290000       0.24122000
H       -3.13552000      -1.09232000      -1.31391000       0.45329000
H       -3.27522000       0.90895000      -0.97971000       0.45112000
H       -4.34242000       3.49246000      -4.99224000       0.22400000
H       -5.37664000       4.44177000      -3.88761000       0.20933000
H       -5.40364000       2.63664000      -3.85930000       0.24413000
H       -2.20337000       4.36370000      -4.24264000       0.23030000
H       -1.94510000       4.64456000      -2.51998000       0.22786000
H       -3.22374000       5.56701000      -3.38768000       0.20686000
H        1.03446000      -0.00748000       0.33066000       0.24825000
H       -3.11867000       2.62431000      -3.21753000       0.48708000
H       -1.24534000      -0.62116000      -3.39884000       0.22986000
H        1.10812000       0.82538000      -1.99800000       0.25367000
H        2.99636000      -0.58301000      -1.35063000       0.21944000
H        4.21583000      -2.70781000      -1.43001000       0.22916000
H        0.80528000      -4.59316000      -3.27202000       0.23535000
H       -0.41151000      -2.46621000      -3.18483000       0.22268000
H       -2.96575000      -3.41711000      -1.35824000       0.24432000
H       -3.68501000      -1.07493000      -4.89004000       0.25436000
C       -0.31816000       3.58679000       0.37068000      -0.22479000
H       -0.67724000       3.82117000      -0.63570000       0.19135000
H       -1.13823000       3.69698000       1.08783000       0.18372000
C       -0.38640000      -3.56974000       0.50766000      -0.22496000
H       -1.25972000      -3.63416000       1.16308000       0.18977000
H       -0.66580000      -3.87126000      -0.50548000       0.18678000
O        0.21328000       2.26158000       0.39419000      -0.55756000
O        0.15375000      -2.24272000       0.50083000      -0.55387000
H        0.51118000       4.24256000       0.64124000       0.19219000
H        0.41777000      -4.20836000       0.87531000       0.19475000
O        3.15738000      -5.03234000      -2.43053000      -0.54115000
C        4.48802000      -5.19245000      -1.95938000      -0.22117000
H        4.56601000      -4.96703000      -0.88717000       0.17822000
H        4.73940000      -6.24100000      -2.12749000       0.20092000
H        5.19099000      -4.55672000      -2.51418000       0.17977000
H       -2.79050000      -2.93806000      -6.29152000       0.25195000
H       -2.04946000      -5.26611000      -2.76726000       0.25085000
N       -1.74943000      -5.23151000      -5.41306000       0.50138000
O       -1.85769000      -5.15381000      -6.63828000      -0.39815000
O       -1.13464000      -6.13003000      -4.82618000      -0.40912000
