91
R5TS18minorsNO2.xyz  (col5 = NBO charge)
O        0.57479000      -3.39404000       3.07045000      -0.48659000
N        0.19965000      -2.21384000       2.86965000       0.45743000
C        1.10980000      -1.24251000       2.53921000      -0.13634000
C        0.67747000       0.03909000       2.22002000      -0.09637000
C        1.60663000       1.16811000       2.07974000      -0.04686000
O       -1.85908000      -1.55539000      -0.06176000      -0.71460000
C       -0.65445000      -1.28197000      -0.08562000       0.80170000
C        0.00355000      -0.00071000      -0.02152000      -0.51370000
C       -0.71463000       1.24518000      -0.15068000       0.79982000
O       -1.90098000       1.45945000       0.12540000      -0.70705000
C        2.91973000       1.01297000       1.59794000      -0.17997000
C        1.15492000       2.45573000       2.41461000      -0.18487000
C        1.97537000       3.56624000       2.26349000      -0.18085000
C        3.26575000       3.37735000       1.77398000       0.06827000
C        3.75417000       2.11137000       1.44613000      -0.17912000
O       -1.03667000      -1.89288000       2.96215000      -0.54843000
N       -2.83695000      -3.90329000       3.00099000      -0.51467000
C       -2.03322000      -5.16343000       2.90284000      -0.37513000
C       -3.83807000      -3.75051000       1.85967000      -0.00476000
C       -4.61362000      -2.41739000       1.94299000      -0.05366000
C       -5.52129000      -2.27958000       0.70328000      -0.39394000
C       -6.48195000      -3.46595000       0.56385000      -0.39451000
C       -5.71074000      -4.79044000       0.52682000      -0.38534000
C       -4.80076000      -4.93995000       1.75805000      -0.41588000
N       -3.70601000      -1.29330000       2.03325000      -0.67257000
C       -3.76046000      -0.29402000       2.94921000       0.36772000
N       -2.98292000       0.76885000       2.57842000      -0.70698000
C       -2.55706000       1.85217000       3.36168000       0.31733000
S       -4.70405000      -0.33559000       4.35683000      -0.33509000
C       -3.39995000      -3.75917000       4.38092000      -0.38888000
H       -5.24035000      -2.40650000       2.83905000       0.24576000
H       -4.88608000      -2.19563000      -0.18935000       0.21181000
H       -6.06997000      -1.33659000       0.79621000       0.22676000
H       -7.09017000      -3.35405000      -0.34099000       0.21683000
H       -7.17841000      -3.47348000       1.41431000       0.20161000
H       -5.09367000      -4.83017000      -0.38191000       0.20147000
H       -6.39901000      -5.64195000       0.47950000       0.21531000
H       -5.42186000      -4.98940000       2.66218000       0.21156000
H       -4.24722000      -5.88234000       1.69165000       0.21931000
H       -3.20232000      -3.70844000       0.96687000       0.23241000
H       -2.68991000       0.82706000       1.59231000       0.45357000
H       -3.03922000      -1.19986000       1.25706000       0.45017000
H       -2.57182000      -3.86875000       5.08363000       0.22500000
H       -4.14149000      -4.54068000       4.55655000       0.21233000
H       -3.84379000      -2.76847000       4.49942000       0.24526000
H       -1.10850000      -5.00659000       3.45769000       0.24550000
H       -1.78796000      -5.35519000       1.85792000       0.21611000
H       -2.60652000      -5.99715000       3.30987000       0.21468000
H        1.02885000       0.00810000      -0.36576000       0.24782000
H       -2.13473000      -3.11105000       2.90946000       0.48794000
H       -0.33635000       0.28603000       2.50881000       0.25831000
H        2.12382000      -1.60367000       2.46489000       0.23425000
H        0.14613000       2.58763000       2.78710000       0.23010000
H        1.62093000       4.56132000       2.49674000       0.26017000
H        4.76285000       2.01094000       1.06516000       0.25415000
H        3.27861000       0.03006000       1.30890000       0.23056000
C       -2.47961000       3.11137000       2.75229000      -0.23183000
C       -1.94584000       4.19245000       3.45377000      -0.15534000
C       -1.50461000       4.04748000       4.76803000      -0.17612000
C       -1.59254000       2.79047000       5.36871000      -0.14323000
C       -2.10158000       1.69343000       4.67746000      -0.21476000
H       -2.80915000       3.22644000       1.72695000       0.25903000
C       -1.75410000       5.50553000       2.74787000       1.07894000
H       -1.09119000       4.89000000       5.30900000       0.25328000
C       -1.15441000       2.62009000       6.79992000       1.07883000
H       -2.13019000       0.71703000       5.14195000       0.25805000
F       -0.53099000       5.55675000       2.13930000      -0.36846000
F       -1.80794000       6.55360000       3.59210000      -0.35017000
F       -2.66795000       5.70249000       1.77585000      -0.35173000
F       -2.17483000       2.83319000       7.65965000      -0.35398000
F       -0.17218000       3.49038000       7.12738000      -0.35868000
F       -0.68963000       1.37295000       7.03596000      -0.35687000
O        0.28893000      -2.26567000      -0.15034000      -0.57240000
O        0.10520000       2.24172000      -0.56179000      -0.56543000
C       -0.18393000      -3.61867000      -0.11529000      -0.04434000
C        1.03306000      -4.52136000      -0.04579000      -0.60708000
H       -0.81310000      -3.74229000       0.77084000       0.17364000
H       -0.80301000      -3.81033000      -0.99962000       0.18769000
H        0.72222000      -5.57254000      -0.04343000       0.20893000
H        1.58924000      -4.32189000       0.87420000       0.22067000
H        1.68837000      -4.35723000      -0.90697000       0.21066000
C       -0.45680000       3.57313000      -0.58436000      -0.04691000
C        0.63428000       4.52276000      -1.03863000      -0.60314000
H       -1.32168000       3.58358000      -1.25572000       0.19158000
H       -0.80525000       3.82831000       0.41854000       0.18315000
H        0.23962000       5.54364000      -1.07586000       0.21773000
H        1.00050000       4.25202000      -2.03404000       0.20963000
H        1.47686000       4.51004000      -0.34138000       0.20824000
N        4.12879000       4.54887000       1.56772000       0.49947000
O        5.30384000       4.34884000       1.25815000      -0.39299000
O        3.62233000       5.66265000       1.70969000      -0.38935000
