86
R5TS18majorsCNcNO2.xyz  (col5 = NBO charge)
O       -0.75386000       2.50320000      -2.69035000      -0.49555000
N       -1.30245000       1.46901000      -3.14268000       0.45734000
C       -0.77130000       0.21973000      -2.97494000      -0.15216000
C        0.41697000       0.01215000      -2.28531000      -0.08819000
C        1.11993000      -1.27913000      -2.36769000      -0.06088000
O       -1.88029000       1.50062000       0.00141000      -0.72271000
C       -0.67239000       1.26695000       0.12099000       0.80799000
C        0.00369000       0.00156000       0.00074000      -0.49950000
C       -0.69235000      -1.25611000       0.11578000       0.80313000
O       -1.89145000      -1.47787000      -0.07500000      -0.71425000
C       -3.48344000      -1.95035000      -4.37884000      -0.23286000
C       -3.47207000      -2.10870000      -2.98037000       0.21418000
C       -2.98745000      -3.30789000      -2.41947000      -0.23223000
C       -2.46247000      -4.30313000      -3.22741000      -0.18380000
C       -2.44122000      -4.10975000      -4.61009000       0.02661000
C       -2.97118000      -2.95475000      -5.19064000      -0.17175000
N       -3.77910000      -1.08473000      -2.08406000      -0.66914000
C       -4.59883000       0.00847000      -2.22262000       0.36820000
S       -5.93842000       0.07269000      -3.24976000      -0.31972000
N       -4.21662000       1.00118000      -1.38134000      -0.67625000
C       -4.99097000       2.16104000      -0.98641000      -0.04847000
C       -4.22408000       3.46456000      -1.30970000      -0.01519000
C       -4.98693000       4.70432000      -0.82873000      -0.41556000
C       -5.24915000       4.61976000       0.68359000      -0.38505000
C       -6.02078000       3.34183000       1.03244000      -0.39347000
C       -5.27248000       2.10210000       0.53050000      -0.39634000
N       -3.85130000       3.54931000      -2.78362000      -0.50992000
C       -4.99958000       3.57294000      -3.74301000      -0.38678000
C       -2.90085000       4.66646000      -3.07624000      -0.36377000
O       -2.40115000       1.54556000      -3.80067000      -0.54649000
C        0.51688000      -2.42813000      -2.91232000      -0.18910000
C        1.19386000      -3.63931000      -2.96981000      -0.15588000
C        2.50645000      -3.72601000      -2.47471000      -0.18556000
C        3.12655000      -2.58400000      -1.93609000      -0.14976000
C        2.43701000      -1.38110000      -1.88721000      -0.16626000
H       -5.93875000       2.13237000      -1.53088000       0.24253000
H       -4.31233000       2.00323000       1.05412000       0.21720000
H       -5.84340000       1.18895000       0.72924000       0.22492000
H       -6.17517000       3.27261000       2.11537000       0.21643000
H       -7.01868000       3.38225000       0.57273000       0.20043000
H       -4.28861000       4.62609000       1.21791000       0.20096000
H       -5.79972000       5.51008000       1.00811000       0.21475000
H       -5.94900000       4.77628000      -1.35270000       0.21078000
H       -4.42283000       5.61525000      -1.05764000       0.21888000
H       -3.25629000       3.39937000      -0.80062000       0.24205000
H       -3.18502000      -1.10190000      -1.24618000       0.45456000
H       -3.33505000       0.88775000      -0.86718000       0.45259000
H       -4.58231000       3.57671000      -4.75163000       0.22478000
H       -5.59437000       4.47380000      -3.58409000       0.21153000
H       -5.59618000       2.66793000      -3.61511000       0.24507000
H       -2.42809000       4.45351000      -4.03514000       0.23137000
H       -2.12801000       4.68655000      -2.31050000       0.22607000
H       -3.44277000       5.61244000      -3.11428000       0.20970000
H        1.04416000      -0.00630000       0.29850000       0.24477000
H       -3.30395000       2.67332000      -3.03365000       0.48516000
H       -1.38380000      -0.55579000      -3.40037000       0.23339000
H        1.01789000       0.88947000      -2.07288000       0.25825000
H        2.91593000      -0.50547000      -1.45763000       0.22890000
H        4.14084000      -2.65292000      -1.55681000       0.23718000
H        0.71142000      -4.51249000      -3.40035000       0.24271000
H       -0.49392000      -2.38966000      -3.29597000       0.23016000
H       -2.98823000      -3.41881000      -1.34159000       0.24567000
H       -3.84410000      -1.02518000      -4.80855000       0.25451000
C       -0.30694000       3.60355000       0.33200000      -0.04739000
C        0.85946000       4.54779000       0.55761000      -0.60275000
H       -0.77980000       3.76780000      -0.64176000       0.19036000
H       -1.07509000       3.70858000       1.10786000       0.18251000
H        0.51168000       5.58689000       0.54874000       0.21011000
H        1.60810000       4.42527000      -0.23140000       0.21054000
H        1.33820000       4.35083000       1.52209000       0.21069000
C       -0.35802000      -3.59835000       0.42372000      -0.04465000
C        0.76968000      -4.52070000       0.84616000      -0.60343000
H       -1.21106000      -3.64623000       1.10888000       0.19094000
H       -0.71736000      -3.83778000      -0.58250000       0.18310000
H        0.42135000      -5.55905000       0.85660000       0.21518000
H        1.12641000      -4.26285000       1.84843000       0.21037000
H        1.60911000      -4.44509000       0.14924000       0.21086000
O        0.21716000       2.26742000       0.35724000      -0.57095000
O        0.17199000      -2.25716000       0.41794000      -0.56964000
C        3.21120000      -4.97310000      -2.50191000       0.32095000
N        3.78897000      -5.98288000      -2.50675000      -0.35444000
N       -1.80067000      -5.11130000      -5.45663000       0.50114000
O       -1.96625000      -5.03437000      -6.67462000      -0.39415000
O       -1.11000000      -5.97426000      -4.90092000      -0.40944000
H       -2.93693000      -2.83859000      -6.26710000       0.25256000
H       -2.05817000      -5.21583000      -2.80710000       0.25135000
