85
R5TS18majorcNO2.xyz  (col5 = NBO charge)
O       -0.71368000       2.46790000      -2.67870000      -0.50800000
N       -1.24800000       1.43070000      -3.14717000       0.45227000
C       -0.72256000       0.18598000      -2.96881000      -0.15441000
C        0.45701000      -0.02442000      -2.25638000      -0.07448000
C        1.16269000      -1.31415000      -2.34159000      -0.09870000
O       -1.88021000       1.50174000       0.00347000      -0.72380000
C       -0.67199000       1.26684000       0.12000000       0.81027000
C        0.00397000       0.00136000      -0.00206000      -0.50161000
C       -0.69361000      -1.25443000       0.12108000       0.80650000
O       -1.89097000      -1.48037000      -0.07856000      -0.71658000
C       -3.43099000      -1.99327000      -4.40109000      -0.23219000
C       -3.43542000      -2.13648000      -3.00091000       0.21559000
C       -2.96841000      -3.33436000      -2.42247000      -0.23253000
C       -2.44820000      -4.34459000      -3.21440000      -0.18148000
C       -2.41367000      -4.16814000      -4.59915000       0.02641000
C       -2.92296000      -3.01220000      -5.19679000      -0.17085000
N       -3.74273000      -1.10095000      -2.11883000      -0.66924000
C       -4.55443000      -0.00455000      -2.27630000       0.37023000
S       -5.88482000       0.05522000      -3.31718000      -0.32427000
N       -4.17724000       0.99352000      -1.44029000      -0.67531000
C       -4.94797000       2.16371000      -1.06993000      -0.04811000
C       -4.16681000       3.45809000      -1.39646000      -0.01602000
C       -4.92737000       4.70808000      -0.93808000      -0.41510000
C       -5.21152000       4.64129000       0.57101000      -0.38504000
C       -5.99803000       3.37301000       0.92168000      -0.39321000
C       -5.25187000       2.12277000       0.44333000      -0.39679000
N       -3.77333000       3.52614000      -2.86491000      -0.51247000
C       -4.90684000       3.54177000      -3.84086000      -0.38689000
C       -2.81685000       4.63780000      -3.15617000      -0.36379000
O       -2.33288000       1.51126000      -3.83447000      -0.55880000
C        0.55562000      -2.46620000      -2.87423000      -0.18867000
C        1.25062000      -3.66966000      -2.95768000      -0.21370000
C        2.57127000      -3.74576000      -2.50564000      -0.19560000
C        3.18696000      -2.61084000      -1.96915000      -0.21155000
C        2.48859000      -1.40906000      -1.88699000      -0.16595000
H       -5.88810000       2.13592000      -1.62751000       0.24199000
H       -4.30022000       2.02222000       0.98155000       0.21843000
H       -5.83272000       1.21604000       0.64293000       0.22419000
H       -6.16873000       3.31617000       2.00298000       0.21573000
H       -6.98884000       3.41648000       0.44697000       0.19991000
H       -4.25850000       4.64518000       1.11867000       0.20100000
H       -5.75943000       5.53924000       0.87899000       0.21391000
H       -5.88136000       4.78186000      -1.47647000       0.20999000
H       -4.35326000       5.61241000      -1.16824000       0.21854000
H       -3.20711000       3.39085000      -0.87284000       0.24306000
H       -3.15566000      -1.11261000      -1.27522000       0.45483000
H       -3.30297000       0.88149000      -0.91264000       0.45297000
H       -4.47441000       3.53200000      -4.84309000       0.22424000
H       -5.50194000       4.44606000      -3.70254000       0.21044000
H       -5.50830000       2.64015000      -3.71179000       0.24468000
H       -2.32863000       4.41074000      -4.10408000       0.23079000
H       -2.05626000       4.66630000      -2.37868000       0.22658000
H       -3.35596000       5.58446000      -3.21611000       0.20843000
H        1.04192000      -0.00738000       0.30457000       0.24587000
H       -3.22150000       2.64397000      -3.10196000       0.48620000
H       -1.32031000      -0.59033000      -3.41329000       0.23173000
H        1.05790000       0.85407000      -2.04781000       0.25484000
H        2.96813000      -0.53051000      -1.46205000       0.21951000
H        4.21303000      -2.66336000      -1.61565000       0.22153000
H        3.11790000      -4.68230000      -2.57428000       0.22175000
H        0.75964000      -4.54087000      -3.38472000       0.22508000
H       -0.46620000      -2.43324000      -3.22939000       0.22060000
H       -2.97816000      -3.43173000      -1.34327000       0.24508000
H       -3.77540000      -1.06807000      -4.84382000       0.25420000
C       -0.30444000       3.60285000       0.32721000      -0.04760000
C        0.86124000       4.54630000       0.56068000      -0.60255000
H       -0.76752000       3.76511000      -0.65155000       0.19093000
H       -1.07980000       3.71224000       1.09537000       0.18190000
H        0.51553000       5.58610000       0.54488000       0.20927000
H        1.61713000       4.41930000      -0.22069000       0.21060000
H        1.33062000       4.35178000       1.53034000       0.21000000
C       -0.35508000      -3.59392000       0.42888000      -0.04471000
C        0.78378000      -4.51484000       0.82375000      -0.60508000
H       -1.20204000      -3.65978000       1.12058000       0.18862000
H       -0.71945000      -3.81904000      -0.57846000       0.18505000
H        0.44248000      -5.55596000       0.82193000       0.21149000
H        1.15076000      -4.27030000       1.82587000       0.20874000
H        1.61094000      -4.41617000       0.11486000       0.21479000
O        0.21761000       2.26695000       0.36114000      -0.57130000
O        0.16767000      -2.25146000       0.44254000      -0.56741000
H       -2.05661000      -5.25607000      -2.78005000       0.25039000
H       -2.87633000      -2.90748000      -6.27390000       0.25202000
N       -1.78377000      -5.18919000      -5.42892000       0.50144000
O       -1.91834000      -5.11033000      -6.65120000      -0.39665000
O       -1.13285000      -6.07332000      -4.85808000      -0.41215000
