78
R5TS3majorsCNcPh.xyz  (col5 = NBO charge)
O       -0.74696000       2.49722000      -2.67116000      -0.50288000
N       -1.28466000       1.46805000      -3.14995000       0.45578000
C       -0.76310000       0.21678000      -2.97075000      -0.15652000
C        0.41213000       0.00972000      -2.25361000      -0.09689000
C        1.10546000      -1.28873000      -2.31846000      -0.05408000
O       -1.87985000       1.49575000       0.00268000      -0.71397000
C       -0.67372000       1.26602000       0.12346000       0.80718000
C        0.00723000       0.00098000      -0.00809000      -0.49551000
C       -0.69619000      -1.25250000       0.12662000       0.80308000
O       -1.89027000      -1.47511000      -0.08074000      -0.70338000
C       -3.41064000      -2.01901000      -4.51435000      -0.22977000
C       -3.43244000      -2.21658000      -3.12629000       0.16246000
C       -3.05933000      -3.46065000      -2.59456000      -0.23917000
C       -2.66887000      -4.49662000      -3.44292000      -0.21372000
C       -2.65400000      -4.30577000      -4.82675000      -0.23387000
C       -3.02910000      -3.06615000      -5.35241000      -0.20252000
N       -3.68228000      -1.17359000      -2.21282000      -0.67084000
C       -4.53626000      -0.11475000      -2.30111000       0.37405000
S       -5.88802000      -0.04811000      -3.32043000      -0.34504000
N       -4.18234000       0.87118000      -1.43081000      -0.68549000
C       -4.99849000       1.98849000      -1.00415000      -0.04951000
C       -4.28293000       3.32838000      -1.29562000      -0.01498000
C       -5.09834000       4.52647000      -0.79649000      -0.41568000
C       -5.36203000       4.40059000       0.71287000      -0.38485000
C       -6.08113000       3.08482000       1.03358000      -0.39330000
C       -5.28219000       1.88618000       0.50955000      -0.39684000
N       -3.90533000       3.45382000      -2.76522000      -0.50933000
C       -5.04904000       3.46849000      -3.73010000      -0.38787000
C       -2.98087000       4.59866000      -3.02933000      -0.36398000
O       -2.36001000       1.55441000      -3.84319000      -0.54953000
C        0.46045000      -2.46043000      -2.75581000      -0.19373000
C        1.12950000      -3.67602000      -2.77614000      -0.14919000
C        2.46783000      -3.75037000      -2.35467000      -0.18953000
C        3.12596000      -2.58561000      -1.92230000      -0.14783000
C        2.44681000      -1.37547000      -1.90755000      -0.17306000
H       -5.94383000       1.93721000      -1.55154000       0.24293000
H       -4.32128000       1.81410000       1.03601000       0.21671000
H       -5.81776000       0.94743000       0.68628000       0.22453000
H       -6.23601000       2.98887000       2.11458000       0.21516000
H       -7.07852000       3.09400000       0.57095000       0.19999000
H       -4.40422000       4.43575000       1.25108000       0.20051000
H       -5.95005000       5.26070000       1.05334000       0.21364000
H       -6.06097000       4.56735000      -1.32273000       0.21016000
H       -4.57287000       5.46514000      -1.00559000       0.21780000
H       -3.31629000       3.29273000      -0.78180000       0.24251000
H       -3.07120000      -1.19364000      -1.39060000       0.44862000
H       -3.31013000       0.76166000      -0.90384000       0.44989000
H       -4.62654000       3.49754000      -4.73615000       0.22397000
H       -5.66318000       4.35418000      -3.55928000       0.21004000
H       -5.62520000       2.54752000      -3.62003000       0.24716000
H       -2.50740000       4.42276000      -3.99532000       0.23115000
H       -2.20534000       4.61189000      -2.26627000       0.22647000
H       -3.54298000       5.53361000      -3.03781000       0.20857000
H        1.04434000      -0.00697000       0.30239000       0.24633000
H       -3.33456000       2.59861000      -3.02996000       0.48679000
H       -1.36283000      -0.55834000      -3.41619000       0.23777000
H        1.02349000       0.88485000      -2.06142000       0.25580000
H        2.95483000      -0.48010000      -1.55951000       0.22836000
H        4.16027000      -2.64113000      -1.59883000       0.23618000
H        0.61427000      -4.56957000      -3.11359000       0.23724000
H       -0.57659000      -2.44161000      -3.06791000       0.23871000
H       -3.06638000      -3.59373000      -1.51706000       0.23122000
H       -2.35387000      -5.11338000      -5.48840000       0.21862000
H       -3.67127000      -1.04717000      -4.91538000       0.24328000
C       -0.32396000       3.58777000       0.36191000      -0.22470000
H       -0.70432000       3.82016000      -0.63708000       0.19068000
H       -1.13034000       3.69412000       1.09500000       0.18359000
C       -0.41164000      -3.56894000       0.51205000      -0.22549000
H       -1.21357000      -3.62108000       1.25425000       0.19068000
H       -0.80979000      -3.85006000      -0.46670000       0.18598000
O        0.21450000       2.26509000       0.37670000      -0.55954000
O        0.15703000      -2.25401000       0.46682000      -0.55754000
H        0.50713000       4.24784000       0.61592000       0.19236000
H        0.41035000      -4.23095000       0.78721000       0.19502000
C        3.15520000      -5.00701000      -2.36012000       0.32384000
N        3.71024000      -6.02975000      -2.36044000      -0.36260000
H       -3.01099000      -2.90460000      -6.42687000       0.21968000
H       -2.38458000      -5.45679000      -3.01966000       0.21825000
