91
R5TS18minorcNMe2.xyz  (col5 = NBO charge)
O        0.69286000      -3.37223000       3.02305000      -0.50286000
N        0.29923000      -2.19495000       2.82304000       0.45414000
C        1.18623000      -1.20885000       2.48894000      -0.13954000
C        0.72953000       0.07343000       2.19241000      -0.07771000
C        1.64344000       1.21877000       2.08247000      -0.09237000
O       -1.85943000      -1.55453000      -0.05468000      -0.71482000
C       -0.65570000      -1.27944000      -0.09260000       0.80092000
C        0.00521000      -0.00075000      -0.02469000      -0.52180000
C       -0.71320000       1.24401000      -0.13867000       0.79845000
O       -1.90246000       1.45727000       0.11646000      -0.70064000
C        2.94793000       1.10523000       1.57195000      -0.18141000
C        1.19405000       2.47642000       2.51654000      -0.18473000
C        2.03443000       3.58643000       2.46651000      -0.21439000
C        3.33095000       3.46261000       1.96293000      -0.20146000
C        3.78201000       2.21788000       1.51053000      -0.20993000
O       -0.94248000      -1.89214000       2.92674000      -0.55375000
N       -2.74607000      -3.87059000       3.02925000      -0.51760000
C       -1.95380000      -5.13321000       2.89288000      -0.37736000
C       -3.80184000      -3.71180000       1.94145000      -0.00465000
C       -4.56361000      -2.37382000       2.06692000      -0.05393000
C       -5.53385000      -2.23033000       0.87609000      -0.39418000
C       -6.50637000      -3.41172000       0.78291000      -0.39448000
C       -5.74461000      -4.74008000       0.70435000      -0.38517000
C       -4.77424000      -4.89651000       1.88748000      -0.41566000
N       -3.64609000      -1.25872000       2.11801000      -0.68378000
C       -3.66229000      -0.24742000       3.03245000       0.37662000
N       -2.91685000       0.81076000       2.62651000      -0.66353000
C       -2.45235000       1.91006000       3.38616000       0.11093000
S       -4.53185000      -0.30578000       4.49298000      -0.36783000
C       -3.23539000      -3.71823000       4.43533000      -0.39068000
H       -5.14432000      -2.36195000       2.99400000       0.24519000
H       -4.94545000      -2.14695000      -0.04825000       0.21020000
H       -6.07232000      -1.28491000       0.99943000       0.22623000
H       -7.16039000      -3.29609000      -0.08929000       0.21482000
H       -7.15795000      -3.41818000       1.66839000       0.20078000
H       -5.17396000      -4.77981000      -0.23433000       0.20076000
H       -6.43867000      -5.58844000       0.68911000       0.21343000
H       -5.34908000      -4.94351000       2.82196000       0.21049000
H       -4.23020000      -5.84236000       1.79272000       0.21769000
H       -3.21147000      -3.67152000       1.01766000       0.23144000
H       -2.63818000       0.84442000       1.63747000       0.44711000
H       -3.01600000      -1.16575000       1.31331000       0.44732000
H       -2.37159000      -3.83200000       5.09318000       0.22299000
H       -3.97241000      -4.49401000       4.65236000       0.20944000
H       -3.66467000      -2.72265000       4.57362000       0.24868000
H       -0.99368000      -4.97010000       3.38322000       0.24639000
H       -1.77896000      -5.33827000       1.83629000       0.21524000
H       -2.49987000      -5.96174000       3.34608000       0.21304000
H        1.02938000       0.01045000      -0.37170000       0.24669000
H       -2.04168000      -3.08114000       2.90352000       0.49049000
H       -0.28234000       0.30019000       2.50434000       0.26092000
H        2.20674000      -1.54868000       2.40136000       0.23043000
H        0.18742000       2.57951000       2.90274000       0.23478000
H        1.66852000       4.54814000       2.81687000       0.21812000
H        3.98599000       4.32863000       1.91652000       0.21827000
H        4.78573000       2.11752000       1.10639000       0.21971000
H        3.30006000       0.14651000       1.20081000       0.21949000
C       -2.47158000       3.17990000       2.80294000      -0.20326000
C       -1.88875000       4.27254000       3.44055000      -0.28012000
C       -1.27707000       4.13857000       4.70608000       0.18555000
C       -1.27523000       2.84868000       5.28579000      -0.26576000
C       -1.84548000       1.75934000       4.63768000      -0.19235000
H       -2.91264000       3.30031000       1.81893000       0.23296000
H       -1.80649000       0.77623000       5.09217000       0.23488000
O        0.28772000      -2.26532000      -0.18367000      -0.57605000
O        0.11925000       2.25073000      -0.51399000      -0.56993000
C       -0.18735000      -3.61507000      -0.13771000      -0.04368000
C        1.02867000      -4.52096000      -0.08771000      -0.60698000
H       -0.80057000      -3.73577000       0.75958000       0.17349000
H       -0.82325000      -3.80938000      -1.00989000       0.18512000
H        0.71612000      -5.57181000      -0.07497000       0.20665000
H        1.60160000      -4.31730000       0.82098000       0.22186000
H        1.66818000      -4.36152000      -0.96184000       0.20868000
C       -0.42205000       3.58409000      -0.46015000      -0.04701000
C        0.68046000       4.52405000      -0.91138000      -0.60548000
H       -1.30669000       3.64394000      -1.10332000       0.18844000
H       -0.73943000       3.79609000       0.56660000       0.18730000
H        0.32781000       5.56127000      -0.87940000       0.20860000
H        0.99052000       4.29407000      -1.93604000       0.20816000
H        1.55128000       4.42748000      -0.25599000       0.21373000
H       -1.91145000       5.23018000       2.93505000       0.22115000
H       -0.80507000       2.67970000       6.24663000       0.22262000
N       -0.69220000       5.22907000       5.35741000      -0.51444000
C       -0.49833000       6.45499000       4.60362000      -0.36323000
C        0.26638000       4.95735000       6.41831000      -0.36459000
H       -1.45839000       6.85204000       4.25648000       0.20191000
H       -0.04940000       7.20920000       5.25378000       0.20637000
H        0.15372000       6.32489000       3.72118000       0.17711000
H       -0.21660000       4.45149000       7.26139000       0.20022000
H        1.10968000       4.33191000       6.08068000       0.18638000
H        0.66397000       5.90328000       6.79270000       0.20476000
