83
R5TS18majorcPh.xyz  (col5 = NBO charge)
O       -0.75505000       2.44105000      -2.69342000      -0.51006000
N       -1.28325000       1.39890000      -3.15868000       0.45304000
C       -0.74636000       0.15758000      -2.97154000      -0.15705000
C        0.43420000      -0.02742000      -2.25427000      -0.08007000
C        1.15855000      -1.30790000      -2.31780000      -0.09335000
O       -1.88088000       1.49500000       0.00937000      -0.72054000
C       -0.67159000       1.26632000       0.11396000       0.80890000
C        0.00617000       0.00071000      -0.00447000      -0.50207000
C       -0.69632000      -1.25139000       0.13068000       0.80701000
O       -1.89018000      -1.47550000      -0.08562000      -0.71120000
C       -3.46851000      -2.04969000      -4.51797000      -0.22759000
C       -3.44465000      -2.23945000      -3.12895000       0.16376000
C       -3.04101000      -3.47660000      -2.60296000      -0.23996000
C       -2.66867000      -4.51366000      -3.45766000      -0.21254000
C       -2.70314000      -4.33194000      -4.84215000      -0.23489000
C       -3.10620000      -3.09873000      -5.36184000      -0.20297000
N       -3.68093000      -1.19724000      -2.21204000      -0.67038000
C       -4.53827000      -0.14081000      -2.28529000       0.37688000
S       -5.91116000      -0.07901000      -3.27946000      -0.35182000
N       -4.17378000       0.84569000      -1.42135000      -0.68456000
C       -4.97493000       1.97738000      -1.00531000      -0.04939000
C       -4.24779000       3.30566000      -1.32159000      -0.01696000
C       -5.04874000       4.51900000      -0.83588000      -0.41513000
C       -5.30283000       4.41876000       0.67699000      -0.38481000
C       -6.03215000       3.11495000       1.02272000      -0.39298000
C       -5.24836000       1.90070000       0.51172000      -0.39737000
N       -3.87661000       3.40604000      -2.79436000      -0.51164000
C       -5.02425000       3.40985000      -3.75403000      -0.38839000
C       -2.95093000       4.54406000      -3.08143000      -0.36343000
O       -2.36533000       1.47065000      -3.84686000      -0.55569000
C        0.54144000      -2.49997000      -2.73893000      -0.19323000
C        1.26214000      -3.68967000      -2.79341000      -0.20972000
C        2.61028000      -3.71665000      -2.42596000      -0.20228000
C        3.23240000      -2.54074000      -1.99782000      -0.21122000
C        2.51167000      -1.35065000      -1.94279000      -0.17143000
H       -5.92492000       1.92802000      -1.54483000       0.24245000
H       -4.28440000       1.82722000       1.03188000       0.21839000
H       -5.79206000       0.97016000       0.70629000       0.22386000
H       -6.18047000       3.03722000       2.10620000       0.21446000
H       -7.03267000       3.12697000       0.56672000       0.19930000
H       -4.34066000       4.45220000       1.20739000       0.20071000
H       -5.88005000       5.28967000       1.00879000       0.21271000
H       -6.01453000       4.56157000      -1.35639000       0.20942000
H       -4.51545000       5.44920000      -1.06269000       0.21720000
H       -3.27947000       3.26799000      -0.81177000       0.24488000
H       -3.05298000      -1.21285000      -1.40147000       0.44971000
H       -3.29579000       0.73864000      -0.90216000       0.45162000
H       -4.60589000       3.42246000      -4.76222000       0.22335000
H       -5.63516000       4.29996000      -3.59410000       0.20915000
H       -5.60342000       2.49270000      -3.62790000       0.24726000
H       -2.47074000       4.34287000      -4.03911000       0.23095000
H       -2.18039000       4.57873000      -2.31415000       0.22632000
H       -3.51381000       5.47805000      -3.11814000       0.20729000
H        1.04520000      -0.00708000       0.29908000       0.24529000
H       -3.30965000       2.54282000      -3.05069000       0.48788000
H       -1.33275000      -0.62992000      -3.41373000       0.23701000
H        1.02529000       0.86195000      -2.06405000       0.25353000
H        2.99607000      -0.43855000      -1.60229000       0.21915000
H        4.27931000      -2.55186000      -1.70714000       0.22053000
H        3.17158000      -4.64608000      -2.47192000       0.21936000
H        0.76298000      -4.59638000      -3.12440000       0.22159000
H       -0.50671000      -2.51335000      -3.01521000       0.22906000
H       -3.01082000      -3.60264000      -1.52504000       0.23104000
H       -2.41752000      -5.14071000      -5.50901000       0.21671000
H       -3.74848000      -1.08224000      -4.91569000       0.24290000
C       -0.30894000       3.60423000       0.29544000      -0.04746000
C        0.85775000       4.55535000       0.49005000      -0.60235000
H       -0.79491000       3.75227000      -0.67417000       0.19168000
H       -1.06716000       3.72093000       1.07958000       0.18104000
H        0.50748000       5.59358000       0.46946000       0.20892000
H        1.59549000       4.42146000      -0.30742000       0.21020000
H        1.35081000       4.37473000       1.45069000       0.20926000
C       -0.39127000      -3.58242000       0.49726000      -0.04557000
C        0.74135000      -4.51662000       0.87926000      -0.60570000
H       -1.22288000      -3.62497000       1.20922000       0.18838000
H       -0.78733000      -3.81499000      -0.49660000       0.18638000
H        0.38370000      -5.55220000       0.90136000       0.21001000
H        1.13556000      -4.26370000       1.86894000       0.20852000
H        1.55419000      -4.44080000       0.15100000       0.21406000
O        0.21949000       2.27131000       0.33506000      -0.57333000
O        0.15403000      -2.24945000       0.48232000      -0.56860000
H       -3.12443000      -2.94308000      -6.43729000       0.21833000
H       -2.35820000      -5.46726000      -3.03782000       0.21632000
