87
R5TS18majorsOMecPh.xyz  (col5 = NBO charge)
O       -0.69758000       2.42903000      -2.66743000      -0.52685000
N       -1.21552000       1.38649000      -3.15122000       0.44582000
C       -0.69581000       0.14783000      -2.94769000      -0.15824000
C        0.47266000      -0.04670000      -2.19906000      -0.08206000
C        1.18679000      -1.33001000      -2.26435000      -0.12612000
O       -1.88066000       1.49430000       0.00878000      -0.71541000
C       -0.67263000       1.26713000       0.11788000       0.81385000
C        0.00844000       0.00036000      -0.01158000      -0.49400000
C       -0.69859000      -1.25112000       0.13754000       0.81103000
O       -1.88938000      -1.47553000      -0.08870000      -0.70588000
C       -3.38679000      -2.04629000      -4.53261000      -0.22784000
C       -3.40151000      -2.22564000      -3.14207000       0.16376000
C       -3.01951000      -3.46097000      -2.59617000      -0.23937000
C       -2.62986000      -4.50651000      -3.43270000      -0.21269000
C       -2.62567000      -4.33510000      -4.81893000      -0.23475000
C       -3.00766000      -3.10367000      -5.35851000      -0.20335000
N       -3.65496000      -1.17431000      -2.24009000      -0.66982000
C       -4.49955000      -0.11020000      -2.34766000       0.37764000
S       -5.85012000      -0.05042000      -3.37221000      -0.35259000
N       -4.14530000       0.88407000      -1.48925000      -0.68293000
C       -4.93916000       2.03394000      -1.11140000      -0.04908000
C       -4.18397000       3.34628000      -1.42993000      -0.01649000
C       -4.97498000       4.57866000      -0.97586000      -0.41497000
C       -5.26578000       4.50266000       0.53158000      -0.38484000
C       -6.02622000       3.21657000       0.87597000      -0.39293000
C       -5.25105000       1.98311000       0.39952000      -0.39732000
N       -3.78093000       3.42379000      -2.89483000      -0.51390000
C       -4.90729000       3.42160000      -3.87847000      -0.38856000
C       -2.84142000       4.55103000      -3.17745000      -0.36329000
O       -2.27693000       1.46873000      -3.87719000      -0.56980000
C        0.56839000      -2.52087000      -2.69825000      -0.17363000
C        1.26123000      -3.71939000      -2.71914000      -0.25249000
C        2.59993000      -3.77214000      -2.29923000       0.34199000
C        3.23589000      -2.59970000      -1.86933000      -0.30255000
C        2.52473000      -1.40165000      -1.85415000      -0.14395000
H       -5.87621000       1.98991000      -1.67351000       0.24252000
H       -4.30148000       1.90099000       0.94423000       0.21803000
H       -5.81460000       1.06416000       0.59283000       0.22366000
H       -6.20217000       3.15532000       1.95643000       0.21412000
H       -7.01500000       3.23988000       0.39543000       0.19923000
H       -4.31571000       4.52563000       1.08402000       0.20044000
H       -5.83463000       5.38796000       0.83903000       0.21247000
H       -5.92764000       4.63124000      -1.51920000       0.20922000
H       -4.42074000       5.49669000      -1.20172000       0.21710000
H       -3.22729000       3.29987000      -0.89911000       0.24322000
H       -3.04281000      -1.18403000      -1.41783000       0.44899000
H       -3.27917000       0.77611000      -0.95133000       0.45026000
H       -4.46723000       3.42055000      -4.87749000       0.22316000
H       -5.51848000       4.31578000      -3.74307000       0.20822000
H       -5.49321000       2.50837000      -3.75472000       0.24700000
H       -2.34169000       4.33143000      -4.12108000       0.23101000
H       -2.08705000       4.59069000      -2.39452000       0.22581000
H       -3.39552000       5.48900000      -3.24085000       0.20627000
H        1.03970000      -0.00679000       0.31847000       0.24572000
H       -3.21047000       2.55158000      -3.13194000       0.48849000
H       -1.27345000      -0.63837000      -3.40314000       0.23509000
H        1.07483000       0.83893000      -2.02383000       0.25260000
H        3.02060000      -0.49937000      -1.50403000       0.21936000
H        4.26883000      -2.60973000      -1.54201000       0.22875000
H        0.78029000      -4.63418000      -3.05040000       0.23305000
H       -0.46994000      -2.52557000      -3.00939000       0.23113000
H       -3.01754000      -3.57850000      -1.51692000       0.23081000
H       -2.32569000      -5.15020000      -5.47161000       0.21687000
H       -3.64851000      -1.07965000      -4.94460000       0.24320000
C       -0.30959000       3.60262000       0.31542000      -0.04769000
C        0.85657000       4.55105000       0.52527000      -0.60246000
H       -0.78405000       3.75301000      -0.65934000       0.19264000
H       -1.07612000       3.71794000       1.09153000       0.18147000
H        0.50825000       5.58992000       0.50359000       0.20917000
H        1.60243000       4.41784000      -0.26472000       0.21039000
H        1.33900000       4.36729000       1.49075000       0.20895000
C       -0.40216000      -3.57759000       0.53364000      -0.04598000
C        0.72318000      -4.51478000       0.93004000      -0.60393000
H       -1.23686000      -3.61045000       1.24244000       0.18849000
H       -0.79416000      -3.81729000      -0.45986000       0.18835000
H        0.35344000      -5.54512000       0.97749000       0.21179000
H        1.12548000      -4.24388000       1.91175000       0.20785000
H        1.53287000      -4.46998000       0.19612000       0.21152000
O        0.21647000       2.26825000       0.35693000      -0.57205000
O        0.14699000      -2.24557000       0.50980000      -0.56781000
O        3.18192000      -5.00375000      -2.33651000      -0.54640000
C        4.53000000      -5.12603000      -1.90611000      -0.22104000
H        4.64579000      -4.82936000      -0.85489000       0.17879000
H        4.78329000      -6.18229000      -2.01314000       0.19959000
H        5.20815000      -4.52549000      -2.52724000       0.17922000
H       -2.33504000      -5.45819000      -2.99756000       0.21671000
H       -2.99518000      -2.95581000      -6.43515000       0.21819000
