87
R5TS3majorsNMe2cNO2.xyz  (col5 = NBO charge)
O       -0.58615000       2.48174000      -2.58887000      -0.54471000
N       -1.09929000       1.45340000      -3.11386000       0.43328000
C       -0.62985000       0.20788000      -2.90888000      -0.15118000
C        0.52105000      -0.05576000      -2.13175000      -0.08599000
C        1.17002000      -1.36723000      -2.25319000      -0.18920000
O       -1.87928000       1.49790000      -0.00044000      -0.71077000
C       -0.67504000       1.26699000       0.13389000       0.82019000
C        0.01131000       0.00088000      -0.02232000      -0.48377000
C       -0.69992000      -1.25060000       0.13798000       0.81707000
O       -1.88988000      -1.48004000      -0.08517000      -0.70516000
C       -3.24765000      -2.05687000      -4.42931000      -0.23225000
C       -3.34045000      -2.15870000      -3.02811000       0.21893000
C       -2.94120000      -3.35145000      -2.38992000      -0.23183000
C       -2.39053000      -4.39168000      -3.11886000      -0.18031000
C       -2.25803000      -4.25293000      -4.50240000       0.02378000
C       -2.70889000      -3.10594000      -5.16285000      -0.16863000
N       -3.66993000      -1.09002000      -2.19628000      -0.66866000
C       -4.44589000       0.02099000      -2.43087000       0.37054000
S       -5.72116000       0.07086000      -3.53827000      -0.32427000
N       -4.08937000       1.03617000      -1.60863000      -0.67191000
C       -4.86050000       2.22395000      -1.29712000      -0.04730000
C       -4.04572000       3.50382000      -1.59941000      -0.01525000
C       -4.80846000       4.76818000      -1.18199000      -0.41455000
C       -5.17084000       4.71824000       0.31036000      -0.38536000
C       -5.99700000       3.46688000       0.62744000      -0.39319000
C       -5.24577000       2.20230000       0.19839000      -0.39689000
N       -3.58914000       3.55809000      -3.04674000      -0.51669000
C       -4.67656000       3.56390000      -4.07085000      -0.38669000
C       -2.61805000       4.66297000      -3.30617000      -0.36497000
O       -2.12795000       1.57178000      -3.89804000      -0.59373000
C        0.51267000      -2.48321000      -2.80218000      -0.06363000
C        1.11343000      -3.72668000      -2.88810000      -0.32637000
C        2.43707000      -3.92743000      -2.42535000       0.22444000
C        3.10200000      -2.80870000      -1.86086000      -0.28040000
C        2.47797000      -1.57257000      -1.78262000      -0.14093000
H       -5.77018000       2.20059000      -1.90306000       0.24164000
H       -4.32598000       2.09305000       0.78775000       0.21775000
H       -5.84970000       1.30561000       0.37400000       0.22335000
H       -6.22687000       3.42076000       1.69835000       0.21491000
H       -6.95975000       3.52282000       0.09922000       0.19969000
H       -4.24750000       4.70863000       0.90681000       0.20033000
H       -5.71719000       5.62824000       0.58424000       0.21325000
H       -5.73241000       4.85494000      -1.76892000       0.20927000
H       -4.20854000       5.66131000      -1.38821000       0.21842000
H       -3.11108000       3.42749000      -1.03306000       0.24062000
H       -3.12358000      -1.08573000      -1.32654000       0.45341000
H       -3.24303000       0.92418000      -1.03831000       0.45069000
H       -4.19976000       3.54371000      -5.05272000       0.22364000
H       -5.27999000       4.46840000      -3.97171000       0.20817000
H       -5.28377000       2.66366000      -3.96168000       0.24297000
H       -2.09571000       4.42639000      -4.23365000       0.23012000
H       -1.88506000       4.68678000      -2.50238000       0.22784000
H       -3.14544000       5.61464000      -3.39225000       0.20535000
H        1.03002000      -0.00941000       0.34578000       0.24989000
H       -3.01332000       2.66564000      -3.26125000       0.48632000
H       -1.21288000      -0.54903000      -3.40232000       0.22667000
H        1.16932000       0.79752000      -1.95539000       0.25196000
H        3.01584000      -0.74101000      -1.33222000       0.21597000
H        4.11079000      -2.90513000      -1.47801000       0.22315000
H        0.54876000      -4.54206000      -3.32329000       0.22722000
H       -0.49965000      -2.39387000      -3.17191000       0.20689000
H       -3.01782000      -3.41829000      -1.31117000       0.24421000
H       -3.54215000      -1.13686000      -4.91721000       0.25471000
C       -0.32669000       3.58063000       0.42951000      -0.22532000
H       -0.66692000       3.82922000      -0.57976000       0.19349000
H       -1.15940000       3.67906000       1.13369000       0.18343000
C       -0.38663000      -3.56581000       0.52198000      -0.22609000
H       -1.26877000      -3.63238000       1.16542000       0.18918000
H       -0.64896000      -3.86941000      -0.49514000       0.18858000
O        0.20438000       2.25455000       0.44158000      -0.55513000
O        0.14838000      -2.23703000       0.51967000      -0.55123000
H        0.49783000       4.23142000       0.72552000       0.19207000
H        0.41522000      -4.19977000       0.90286000       0.19401000
N        3.04509000      -5.16128000      -2.52947000      -0.48974000
C        2.26034000      -6.31430000      -2.95260000      -0.36547000
C        4.33864000      -5.38083000      -1.90584000      -0.36456000
H        2.91141000      -7.18842000      -3.00861000       0.20816000
H        1.43740000      -6.53732000      -2.25660000       0.18989000
H        1.82131000      -6.15804000      -3.94376000       0.20970000
H        5.09536000      -4.70160000      -2.31776000       0.19992000
H        4.30986000      -5.23681000      -0.81428000       0.18969000
H        4.66653000      -6.40202000      -2.10749000       0.20987000
H       -2.04404000      -5.29646000      -2.63526000       0.24931000
H       -2.58653000      -3.02937000      -6.23642000       0.25197000
N       -1.57596000      -5.29492000      -5.25729000       0.50100000
O       -1.63923000      -5.26390000      -6.48680000      -0.39284000
O       -0.94712000      -6.15257000      -4.61867000      -0.41945000
