89
R5TS18minor.xyz  (col5 = NBO charge)
O        0.62043000      -3.32751000       3.07649000      -0.50233000
N        0.23243000      -2.15326000       2.85201000       0.45206000
C        1.12285000      -1.17150000       2.52307000      -0.13817000
C        0.66865000       0.10550000       2.19196000      -0.07881000
C        1.58050000       1.25341000       2.09102000      -0.09372000
O       -1.85911000      -1.55591000      -0.06293000      -0.71597000
C       -0.65419000      -1.28141000      -0.08579000       0.80459000
C        0.00349000       0.00009000      -0.01843000      -0.51515000
C       -0.71552000       1.24302000      -0.15526000       0.80469000
O       -1.90026000       1.46077000       0.12822000      -0.71084000
C        2.89548000       1.13729000       1.60879000      -0.18221000
C        1.11775000       2.51691000       2.49177000      -0.18657000
C        1.94776000       3.63413000       2.43020000      -0.20867000
C        3.25416000       3.50542000       1.95486000      -0.19891000
C        3.72340000       2.25384000       1.54149000      -0.20681000
O       -1.01485000      -1.85200000       2.92449000      -0.56349000
N       -2.78153000      -3.85678000       3.03298000      -0.51696000
C       -1.97638000      -5.11697000       2.96072000      -0.37529000
C       -3.77944000      -3.72412000       1.88779000      -0.00791000
C       -4.57370000      -2.40124000       1.95845000      -0.05315000
C       -5.47436000      -2.28210000       0.71156000      -0.39425000
C       -6.41991000      -3.48063000       0.57368000      -0.39433000
C       -5.63277000      -4.79601000       0.55245000      -0.38516000
C       -4.72867000      -4.92507000       1.79022000      -0.41529000
N       -3.68445000      -1.26252000       2.04991000      -0.67097000
C       -3.77616000      -0.25035000       2.94805000       0.37159000
N       -3.00632000       0.81899000       2.57968000      -0.67161000
C       -2.63396000       1.93683000       3.34057000       0.18210000
S       -4.75583000      -0.28790000       4.33241000      -0.33946000
C       -3.34626000      -3.68576000       4.40790000      -0.38784000
H       -5.20759000      -2.39519000       2.84955000       0.24571000
H       -4.83363000      -2.19585000      -0.17675000       0.21249000
H       -6.03521000      -1.34538000       0.79529000       0.22635000
H       -7.02290000      -3.38288000      -0.33642000       0.21616000
H       -7.12235000      -3.49016000       1.41925000       0.20118000
H       -5.00918000      -4.83510000      -0.35187000       0.20119000
H       -6.31061000      -5.65611000       0.50702000       0.21470000
H       -5.35412000      -4.97481000       2.69157000       0.21081000
H       -4.16447000      -5.86179000       1.73426000       0.21902000
H       -3.14166000      -3.67999000       0.99679000       0.23232000
H       -2.68702000       0.85957000       1.60031000       0.45409000
H       -3.00871000      -1.16987000       1.28092000       0.45116000
H       -2.51940000      -3.78187000       5.11416000       0.22455000
H       -4.08892000      -4.46299000       4.59860000       0.21108000
H       -3.79138000      -2.69382000       4.50784000       0.24474000
H       -1.05013000      -4.94496000       3.50886000       0.24608000
H       -1.73216000      -5.33087000       1.91990000       0.21577000
H       -2.54649000      -5.94360000       3.38685000       0.21331000
H        1.02878000       0.00984000      -0.36277000       0.24930000
H       -2.07397000      -3.06394000       2.92603000       0.48885000
H       -0.35002000       0.33100000       2.48304000       0.25491000
H        2.14641000      -1.50806000       2.46440000       0.23219000
H        0.10316000       2.61911000       2.86105000       0.22063000
H        1.56277000       4.60074000       2.73764000       0.22630000
H        3.90302000       4.37528000       1.89946000       0.21999000
H        4.73595000       2.15157000       1.16077000       0.22049000
H        3.26010000       0.17359000       1.26369000       0.21999000
C       -2.53807000       3.17031000       2.68121000      -0.18970000
C       -2.05506000       4.28793000       3.36026000      -0.15432000
C       -1.68548000       4.20779000       4.70209000      -0.17572000
C       -1.79308000       2.97792000       5.35257000      -0.14152000
C       -2.25080000       1.84363000       4.68523000      -0.17000000
H       -2.81219000       3.23550000       1.63566000       0.26072000
C       -1.84149000       5.57366000       2.61238000       1.07954000
H       -1.31307000       5.07910000       5.22713000       0.25124000
C       -1.43709000       2.87951000       6.81263000       1.07925000
H       -2.29573000       0.89012000       5.19332000       0.25951000
F       -0.56672000       5.65269000       2.12661000      -0.36771000
F       -2.01887000       6.65651000       3.39654000      -0.35274000
F       -2.66006000       5.69174000       1.54663000      -0.35235000
F       -2.50689000       3.12493000       7.60198000      -0.35522000
F       -0.48141000       3.77461000       7.15468000      -0.35983000
F       -0.97853000       1.65049000       7.13667000      -0.35617000
O        0.29002000      -2.26427000      -0.15395000      -0.57261000
O        0.10192000       2.23654000      -0.57641000      -0.56332000
C       -0.17863000      -3.61697000      -0.09663000      -0.04405000
C        1.04166000      -4.51486000      -0.01993000      -0.60703000
H       -0.80053000      -3.72892000       0.79580000       0.17383000
H       -0.80275000      -3.82473000      -0.97398000       0.18614000
H        0.73448000      -5.56707000       0.00058000       0.20758000
H        1.60092000      -4.29793000       0.89420000       0.22225000
H        1.69208000      -4.36194000      -0.88699000       0.20964000
C       -0.43245000       3.57642000      -0.53194000      -0.04626000
C        0.66812000       4.51486000      -0.98564000      -0.60528000
H       -1.32078000       3.63393000      -1.16960000       0.18986000
H       -0.73495000       3.80076000       0.49267000       0.18382000
H        0.31760000       5.55070000      -0.92167000       0.21383000
H        0.96334000       4.30580000      -2.01898000       0.20725000
H        1.54561000       4.40363000      -0.34180000       0.21484000
