83
R5TS3minorsOMecNO2.xyz  (col5 = NBO charge)
O        0.61700000      -3.34341000       2.97937000      -0.52761000
N        0.24307000      -2.15561000       2.78174000       0.44172000
C        1.12970000      -1.18920000       2.43397000      -0.14017000
C        0.66986000       0.09922000       2.10560000      -0.08809000
C        1.58019000       1.25110000       2.04865000      -0.12662000
O       -1.85704000      -1.55846000      -0.04441000      -0.70621000
C       -0.65648000      -1.28394000      -0.11596000       0.81327000
C        0.00683000      -0.00059000      -0.00161000      -0.50083000
C       -0.71744000       1.24309000      -0.15091000       0.80958000
O       -1.90146000       1.46645000       0.11870000      -0.70097000
C        2.88026000       1.18306000       1.53086000      -0.15505000
C        1.12524000       2.49241000       2.52968000      -0.16794000
C        1.93046000       3.61943000       2.50716000      -0.25554000
C        3.22885000       3.53531000       1.98015000       0.34779000
C        3.70230000       2.30716000       1.49117000      -0.29727000
O       -1.00284000      -1.83538000       2.90416000      -0.58655000
N       -2.77483000      -3.80344000       2.91626000      -0.51727000
C       -1.98918000      -5.06728000       2.76808000      -0.37618000
C       -3.79949000      -3.61586000       1.80630000      -0.00901000
C       -4.57979000      -2.29176000       1.95201000      -0.05296000
C       -5.51475000      -2.11282000       0.73783000      -0.39384000
C       -6.47655000      -3.29549000       0.57847000      -0.39435000
C       -5.70282000      -4.61518000       0.48080000      -0.38536000
C       -4.76489000      -4.80258000       1.68520000      -0.41456000
N       -3.67981000      -1.16253000       2.06346000      -0.66818000
C       -3.75965000      -0.16969000       2.98359000       0.36879000
N       -3.02064000       0.92133000       2.60438000      -0.66865000
C       -2.57104000       2.00701000       3.36181000       0.21019000
S       -4.70029000      -0.24162000       4.39003000      -0.33103000
C       -3.29655000      -3.67882000       4.31175000      -0.38662000
H       -5.18821000      -2.31670000       2.86027000       0.24526000
H       -4.89853000      -1.99741000      -0.16444000       0.21113000
H       -6.06282000      -1.17480000       0.87539000       0.22574000
H       -7.10445000      -3.15472000      -0.30891000       0.21578000
H       -7.15439000      -3.33350000       1.44309000       0.20125000
H       -5.10577000      -4.62189000      -0.44212000       0.20069000
H       -6.38979000      -5.46705000       0.41947000       0.21445000
H       -5.36443000      -4.88471000       2.60171000       0.21052000
H       -4.21240000      -5.74115000       1.57387000       0.21890000
H       -3.18343000      -3.54095000       0.90227000       0.23479000
H       -2.73341000       0.96562000       1.61725000       0.45144000
H       -3.00361000      -1.06438000       1.29698000       0.45064000
H       -2.44833000      -3.80304000       4.98755000       0.22501000
H       -4.03870000      -4.45750000       4.49956000       0.20989000
H       -3.73063000      -2.68831000       4.46023000       0.24293000
H       -1.05253000      -4.93389000       3.30930000       0.24747000
H       -1.76569000      -5.22587000       1.71253000       0.21484000
H       -2.56226000      -5.90933000       3.15907000       0.21145000
H        1.01643000       0.01246000      -0.39076000       0.25234000
H       -2.05272000      -3.01246000       2.82735000       0.48884000
H       -0.33300000       0.32053000       2.45239000       0.25500000
H        2.14890000      -1.53138000       2.33912000       0.22942000
H        0.12624000       2.56385000       2.94042000       0.22266000
H        1.57711000       4.57096000       2.89379000       0.23368000
H        4.69933000       2.22044000       1.07556000       0.22853000
H        3.25353000       0.24434000       1.12964000       0.22041000
C       -2.43345000       3.23956000       2.69339000      -0.23355000
C       -1.83704000       4.32115000       3.32429000      -0.18328000
C       -1.39564000       4.17617000       4.64047000       0.03047000
C       -1.56515000       2.97730000       5.33673000      -0.17198000
C       -2.14618000       1.89053000       4.69723000      -0.21992000
H       -2.76228000       3.31680000       1.66360000       0.24554000
H       -2.24657000       0.94258000       5.20880000       0.24963000
O        0.28964000      -2.24689000      -0.29967000      -0.55880000
O        0.10865000       2.23078000      -0.57526000      -0.54995000
C       -0.12471000      -3.61352000      -0.26597000      -0.23317000
H       -0.10952000      -3.96437000       0.77157000       0.19067000
H       -1.11908000      -3.73629000      -0.70330000       0.19084000
C       -0.43245000       3.55789000      -0.56873000      -0.22489000
H       -1.34982000       3.61058000      -1.16151000       0.19115000
H       -0.64153000       3.87692000       0.45626000       0.18507000
H        0.61531000      -4.16871000      -0.84579000       0.19490000
H        0.34344000       4.18979000      -1.00239000       0.19605000
O        3.94414000       4.69250000       1.98574000      -0.54283000
C        5.27097000       4.67337000       1.47935000      -0.22103000
H        5.29415000       4.39067000       0.41813000       0.17808000
H        5.64673000       5.69205000       1.58969000       0.20047000
H        5.91059000       3.98668000       2.05000000       0.17938000
H       -1.20490000       2.89935000       6.35514000       0.25262000
H       -1.69757000       5.26612000       2.81385000       0.25166000
N       -0.69553000       5.28569000       5.28300000       0.50150000
O       -0.47486000       5.20932000       6.49278000      -0.39615000
O       -0.34957000       6.23503000       4.57127000      -0.40600000
