79
R5TS3minorsNO2cPh.xyz  (col5 = NBO charge)
O       -0.56239000      -3.33178000       3.06548000      -0.53151000
N       -0.58436000      -2.08439000       2.86932000       0.43990000
C        0.55156000      -1.43739000       2.48637000      -0.16811000
C        0.49440000      -0.09080000       2.06908000      -0.13108000
C        1.72516000       0.73243000       2.06772000      -0.02690000
O       -1.85334000      -1.54692000       0.00027000      -0.67686000
C       -0.66739000      -1.28304000      -0.16661000       0.82022000
C        0.01205000      -0.00277000      -0.00398000      -0.47678000
C       -0.70448000       1.25216000      -0.09746000       0.81195000
O       -1.91244000       1.44713000       0.07361000      -0.70426000
C        2.96066000       0.23046000       1.62149000      -0.19171000
C        1.65592000       2.05593000       2.53080000      -0.18956000
C        2.78883000       2.86099000       2.56217000      -0.17681000
C        3.99806000       2.33386000       2.11416000       0.06250000
C        4.09971000       1.02418000       1.64066000      -0.18064000
O       -1.66828000      -1.41779000       3.03940000      -0.58223000
N       -3.82924000      -2.71299000       2.06734000      -0.52063000
C       -3.26072000      -3.99113000       1.53826000      -0.38015000
C       -4.78899000      -2.06371000       1.08740000      -0.00702000
C       -5.14884000      -0.62737000       1.51403000      -0.05627000
C       -6.00563000       0.02967000       0.41391000      -0.39142000
C       -7.26904000      -0.78879000       0.11744000      -0.39435000
C       -6.91555000      -2.23658000      -0.24719000      -0.38538000
C       -6.05580000      -2.89323000       0.84648000      -0.41457000
N       -3.95893000       0.14970000       1.78724000      -0.67590000
C       -3.73470000       0.86743000       2.92500000       0.37089000
N       -2.73618000       1.78587000       2.76032000      -0.67282000
C       -1.90423000       2.35122000       3.75503000       0.15488000
S       -4.61494000       0.69421000       4.35782000      -0.32674000
C       -4.33774000      -2.90369000       3.46317000      -0.38588000
H       -5.72998000      -0.65072000       2.44009000       0.24531000
H       -5.39851000       0.13229000      -0.49697000       0.20524000
H       -6.26141000       1.04200000       0.74411000       0.22478000
H       -7.84087000      -0.32096000      -0.69240000       0.21476000
H       -7.91775000      -0.78620000       1.00481000       0.20202000
H       -6.36115000      -2.25088000      -1.19629000       0.20045000
H       -7.82390000      -2.82987000      -0.40284000       0.21434000
H       -6.63900000      -2.95738000       1.77431000       0.21137000
H       -5.80030000      -3.91634000       0.55040000       0.21829000
H       -4.20498000      -2.00577000       0.16370000       0.23812000
H       -2.44519000       1.95081000       1.79682000       0.43246000
H       -3.28078000       0.24801000       1.02864000       0.44822000
H       -3.49200000      -3.25532000       4.05522000       0.23379000
H       -5.14421000      -3.63893000       3.46223000       0.20712000
H       -4.66943000      -1.94378000       3.86298000       0.24248000
H       -2.40254000      -4.24234000       2.16205000       0.24664000
H       -2.93023000      -3.81731000       0.51575000       0.22529000
H       -4.01860000      -4.77477000       1.57841000       0.20778000
H        1.01831000       0.02113000      -0.40282000       0.25698000
H       -3.00407000      -2.06868000       2.19773000       0.50729000
H       -0.40309000       0.42581000       2.38716000       0.26014000
H        1.41875000      -2.07440000       2.40374000       0.22823000
H        0.71178000       2.45361000       2.88399000       0.23769000
H        2.74618000       3.87931000       2.92775000       0.25279000
H        5.05702000       0.65402000       1.29547000       0.25322000
H        3.02202000      -0.78282000       1.23565000       0.23115000
C       -1.55994000       3.70399000       3.64438000      -0.24117000
C       -0.63294000       4.26468000       4.52644000      -0.21285000
C       -0.06141000       3.48239000       5.53114000      -0.22485000
C       -0.41910000       2.13487000       5.64622000      -0.20074000
C       -1.32965000       1.56201000       4.76124000      -0.22078000
H       -2.03078000       4.30920000       2.87424000       0.22494000
H        0.65838000       3.91712000       6.21875000       0.22040000
H       -1.58196000       0.50883000       4.81150000       0.24784000
O        0.26102000      -2.23720000      -0.43383000      -0.55681000
O        0.15396000       2.27927000      -0.30800000      -0.54795000
C       -0.17529000      -3.60119000      -0.37076000      -0.23256000
H       -0.39772000      -3.87194000       0.66631000       0.19858000
H       -1.05498000      -3.75972000      -1.00140000       0.18539000
C       -0.40243000       3.59863000      -0.22629000      -0.22708000
H       -1.25361000       3.70820000      -0.90321000       0.19574000
H       -0.72562000       3.81333000       0.79791000       0.18411000
H        0.66269000      -4.19329000      -0.74140000       0.19616000
H        0.40653000       4.27268000      -0.50928000       0.19939000
N        5.19934000       3.18035000       2.13543000       0.50101000
O        6.25646000       2.68748000       1.73902000      -0.39511000
O        5.08035000       4.33526000       2.54731000      -0.39528000
H       -0.36773000       5.31423000       4.43184000       0.22058000
H        0.03137000       1.51816000       6.41895000       0.22233000
