89
R5TS3majorsOMecNMe2.xyz  (col5 = NBO charge)
O       -0.66568000       2.45300000      -2.64500000      -0.52829000
N       -1.18692000       1.41929000      -3.14403000       0.44531000
C       -0.68357000       0.17439000      -2.94344000      -0.15933000
C        0.47860000      -0.04041000      -2.18919000      -0.08401000
C        1.17498000      -1.33393000      -2.26844000      -0.12535000
O       -1.88004000       1.49557000       0.00385000      -0.71108000
C       -0.67466000       1.26554000       0.12490000       0.81207000
C        0.00992000       0.00032000      -0.01419000      -0.49412000
C       -0.69871000      -1.25074000       0.13435000       0.80822000
O       -1.88933000      -1.47554000      -0.08499000      -0.69991000
C       -3.24106000      -2.01492000      -4.52793000      -0.20125000
C       -3.36414000      -2.20845000      -3.14720000       0.11354000
C       -3.03065000      -3.45845000      -2.61621000      -0.20883000
C       -2.58119000      -4.49163000      -3.43449000      -0.27654000
C       -2.46994000      -4.31952000      -4.83183000       0.18451000
C       -2.80776000      -3.04844000      -5.35100000      -0.26471000
N       -3.64499000      -1.15856000      -2.24541000      -0.66294000
C       -4.48278000      -0.09798000      -2.37927000       0.37737000
S       -5.80175000      -0.03784000      -3.44643000      -0.36355000
N       -4.14757000       0.90457000      -1.51839000      -0.68771000
C       -4.95490000       2.04729000      -1.15223000      -0.04886000
C       -4.19837000       3.36344000      -1.45071000      -0.01508000
C       -5.00091000       4.59255000      -1.00809000      -0.41510000
C       -5.32335000       4.50988000       0.49259000      -0.38483000
C       -6.08667000       3.22012000       0.81651000      -0.39317000
C       -5.29778000       1.99091000       0.35174000      -0.39692000
N       -3.76764000       3.44537000      -2.90668000      -0.51379000
C       -4.87458000       3.44441000      -3.91219000      -0.38896000
C       -2.82215000       4.57217000      -3.16832000      -0.36389000
O       -2.23707000       1.51703000      -3.88550000      -0.57197000
C        0.53996000      -2.51086000      -2.71659000      -0.17236000
C        1.21752000      -3.71793000      -2.75263000      -0.25376000
C        2.55613000      -3.79413000      -2.33771000       0.34394000
C        3.20714000      -2.63635000      -1.89106000      -0.30189000
C        2.51163000      -1.42927000      -1.85906000      -0.14478000
H       -5.87991000       2.00114000      -1.73399000       0.24232000
H       -4.35905000       1.91029000       0.91576000       0.21616000
H       -5.86134000       1.06913000       0.53096000       0.22382000
H       -6.28552000       3.15482000       1.89280000       0.21375000
H       -7.06499000       3.24189000       0.31495000       0.19930000
H       -4.38530000       4.53391000       1.06523000       0.20005000
H       -5.90128000       5.39232000       0.79132000       0.21217000
H       -5.94214000       4.64505000      -1.57100000       0.20923000
H       -4.44450000       5.51295000      -1.21880000       0.21679000
H       -3.25124000       3.31755000      -0.90216000       0.24152000
H       -3.03449000      -1.15357000      -1.42286000       0.44593000
H       -3.29215000       0.79812000      -0.96474000       0.44792000
H       -4.41451000       3.44827000      -4.90214000       0.22292000
H       -5.49063000       4.33660000      -3.78551000       0.20758000
H       -5.45951000       2.52828000      -3.80398000       0.24798000
H       -2.30520000       4.35441000      -4.10300000       0.23114000
H       -2.08203000       4.60743000      -2.37160000       0.22622000
H       -3.37345000       5.51135000      -3.23829000       0.20575000
H        1.03888000      -0.00767000       0.32320000       0.24642000
H       -3.19222000       2.57389000      -3.13618000       0.48917000
H       -1.26619000      -0.60278000      -3.40733000       0.23643000
H        1.09486000       0.83506000      -2.01121000       0.25217000
H        3.01976000      -0.53842000      -1.49731000       0.21912000
H        4.24069000      -2.66360000      -1.56638000       0.22825000
H        0.72292000      -4.62158000      -3.09488000       0.22734000
H       -0.49797000      -2.49909000      -3.02855000       0.23321000
H       -3.09395000      -3.60737000      -1.54241000       0.22820000
H       -3.45718000      -1.03883000      -4.94622000       0.24189000
C       -0.32533000       3.58553000       0.36722000      -0.22476000
H       -0.69182000       3.81362000      -0.63787000       0.19197000
H       -1.14179000       3.69572000       1.08867000       0.18263000
C       -0.41983000      -3.56466000       0.51929000      -0.22528000
H       -1.24146000      -3.62484000       1.23937000       0.18830000
H       -0.78960000      -3.83779000      -0.47268000       0.18922000
O        0.21199000       2.26320000       0.39372000      -0.56052000
O        0.14790000      -2.24942000       0.50034000      -0.55654000
H        0.50257000       4.24662000       0.62996000       0.19045000
H        0.39579000      -4.22814000       0.81054000       0.19180000
O        3.12670000      -5.03025000      -2.40732000      -0.54641000
C        4.47745000      -5.17257000      -1.99308000      -0.22085000
H        4.60646000      -4.90119000      -0.93652000       0.17886000
H        4.72224000      -6.22790000      -2.12700000       0.19886000
H        5.15451000      -4.56266000      -2.60644000       0.17899000
H       -2.71634000      -2.84695000      -6.41120000       0.22189000
H       -2.32225000      -5.43583000      -2.97090000       0.22019000
N       -2.04819000      -5.35940000      -5.66535000      -0.51253000
C       -1.64051000      -5.03358000      -7.02238000      -0.36417000
C       -1.42953000      -6.52354000      -5.05642000      -0.36260000
H       -1.33309000      -5.94882000      -7.53326000       0.20467000
H       -2.47741000      -4.60949000      -7.58820000       0.20003000
H       -0.80386000      -4.31575000      -7.05991000       0.18506000
H       -0.51550000      -6.28014000      -4.48654000       0.18027000
H       -2.12772000      -7.02524000      -4.37721000       0.19964000
H       -1.16469000      -7.23961000      -5.83758000       0.20613000
