83
R5TS18minorcPh.xyz  (col5 = NBO charge)
O        0.68876000      -3.36303000       3.01576000      -0.50251000
N        0.29520000      -2.18561000       2.81863000       0.45308000
C        1.17792000      -1.19639000       2.48533000      -0.13952000
C        0.71110000       0.08296000       2.18621000      -0.07809000
C        1.61350000       1.23807000       2.07965000      -0.09316000
O       -1.85865000      -1.55737000      -0.05581000      -0.71491000
C       -0.65496000      -1.28078000      -0.09329000       0.80256000
C        0.00362000      -0.00071000      -0.02085000      -0.51906000
C       -0.71413000       1.24386000      -0.14396000       0.80095000
O       -1.90147000       1.46155000       0.11973000      -0.70332000
C        2.90735000       1.14298000       1.53960000      -0.18176000
C        1.16164000       2.48532000       2.54038000      -0.18562000
C        1.98788000       3.60559000       2.47980000      -0.21094000
C        3.27274000       3.50074000       1.94319000      -0.20192000
C        3.72770000       2.26509000       1.46998000      -0.20916000
O       -0.94790000      -1.88380000       2.92443000      -0.55902000
N       -2.76132000      -3.84194000       3.01286000      -0.51713000
C       -1.97947000      -5.11218000       2.88698000      -0.37680000
C       -3.79291000      -3.66582000       1.90471000      -0.00775000
C       -4.55050000      -2.32505000       2.02632000      -0.05363000
C       -5.49187000      -2.16384000       0.81465000      -0.39451000
C       -6.46963000      -3.33779000       0.68914000      -0.39429000
C       -5.71499000      -4.67046000       0.61656000      -0.38507000
C       -4.77233000      -4.84302000       1.81969000      -0.41532000
N       -3.63050000      -1.21193000       2.10766000      -0.67865000
C       -3.66902000      -0.20792000       3.02563000       0.37563000
N       -2.90818000       0.85427000       2.64167000      -0.67139000
C       -2.48744000       1.96700000       3.40157000       0.16089000
S       -4.58434000      -0.26775000       4.45555000      -0.35618000
C       -3.27628000      -3.68952000       4.40932000      -0.38943000
H       -5.15224000      -2.31946000       2.93970000       0.24556000
H       -4.88131000      -2.07628000      -0.09463000       0.21148000
H       -6.02717000      -1.21614000       0.93435000       0.22611000
H       -7.10243000      -3.21004000      -0.19684000       0.21521000
H       -7.14151000      -3.34726000       1.55928000       0.20077000
H       -5.12386000      -4.70644000      -0.30946000       0.20098000
H       -6.41416000      -5.51387000       0.57895000       0.21375000
H       -5.36815000      -4.89405000       2.74081000       0.21033000
H       -4.23273000      -5.79173000       1.72892000       0.21807000
H       -3.18340000      -3.62028000       0.99400000       0.23322000
H       -2.63227000       0.90077000       1.65167000       0.44898000
H       -2.98608000      -1.11668000       1.31404000       0.44871000
H       -2.42739000      -3.81518000       5.08419000       0.22324000
H       -4.02604000      -4.45765000       4.60914000       0.20997000
H       -3.69846000      -2.69080000       4.54354000       0.24728000
H       -1.02609000      -4.95997000       3.39391000       0.24566000
H       -1.78806000      -5.31628000       1.83317000       0.21536000
H       -2.54093000      -5.93677000       3.32848000       0.21352000
H        1.02685000       0.01038000      -0.37072000       0.24767000
H       -2.04389000      -3.06045000       2.90171000       0.48974000
H       -0.30209000       0.29940000       2.50175000       0.25915000
H        2.20050000      -1.52964000       2.39615000       0.23127000
H        0.16505000       2.57298000       2.95782000       0.23176000
H        1.62037000       4.55845000       2.85076000       0.22137000
H        3.91661000       4.37461000       1.88939000       0.21875000
H        4.72306000       2.17973000       1.04246000       0.21984000
H        3.25974000       0.19136000       1.15060000       0.21965000
C       -2.47673000       3.22035000       2.77257000      -0.23404000
C       -1.96184000       4.33283000       3.43842000      -0.21477000
C       -1.46309000       4.20900000       4.73712000      -0.23354000
C       -1.47904000       2.95864000       5.36210000      -0.20599000
C       -1.97979000       1.83810000       4.70141000      -0.21980000
H       -2.85152000       3.30142000       1.75783000       0.23569000
H       -1.06527000       5.07598000       5.25725000       0.21740000
H       -1.97456000       0.86377000       5.17445000       0.23719000
O        0.28991000      -2.26305000      -0.18687000      -0.57449000
O        0.11646000       2.24283000      -0.53777000      -0.56789000
C       -0.17875000      -3.61553000      -0.13957000      -0.04371000
C        1.04191000      -4.51529000      -0.09574000      -0.60692000
H       -0.78589000      -3.73922000       0.76126000       0.17356000
H       -0.81786000      -3.81180000      -1.00887000       0.18549000
H        0.73440000      -5.56755000      -0.08255000       0.20711000
H        1.61753000      -4.30968000       0.81081000       0.22220000
H        1.67694000      -4.35196000      -0.97237000       0.20893000
C       -0.41698000       3.58009000      -0.49721000      -0.04613000
C        0.68990000       4.50791000      -0.96216000      -0.60570000
H       -1.30358000       3.63728000      -1.13789000       0.18861000
H       -0.72836000       3.80528000       0.52837000       0.18649000
H        0.34346000       5.54739000      -0.94172000       0.20947000
H        0.99619000       4.26365000      -1.98461000       0.20834000
H        1.56109000       4.41396000      -0.30692000       0.21437000
H       -1.08398000       2.84919000       6.36848000       0.21921000
H       -1.95575000       5.29857000       2.93953000       0.21754000
