78
R5TS3minorsCNcPh.xyz  (col5 = NBO charge)
O        0.35484000      -3.44108000       2.98605000      -0.50839000
N        0.04553000      -2.23072000       2.83214000       0.44929000
C        0.99937000      -1.31725000       2.47983000      -0.14723000
C        0.62801000      -0.00967000       2.15366000      -0.10982000
C        1.62304000       1.07485000       2.08015000      -0.04260000
O       -1.85584000      -1.55996000      -0.02976000      -0.70334000
C       -0.65904000      -1.28306000      -0.12940000       0.80835000
C        0.00497000      -0.00218000      -0.00975000      -0.50380000
C       -0.71087000       1.24872000      -0.12524000       0.80105000
O       -1.90481000       1.46303000       0.09997000      -0.69582000
C        2.91736000       0.88146000       1.56717000      -0.18067000
C        1.25883000       2.35184000       2.53605000      -0.18989000
C        2.15829000       3.40921000       2.48944000      -0.14761000
C        3.44752000       3.20745000       1.97109000      -0.19066000
C        3.82205000       1.93213000       1.50894000      -0.15020000
O       -1.16228000      -1.83429000       3.00196000      -0.56107000
N       -3.10136000      -3.66351000       2.67499000      -0.51337000
C       -2.36706000      -4.94133000       2.41880000      -0.37753000
C       -4.11759000      -3.34638000       1.58718000      -0.00664000
C       -4.77829000      -1.96840000       1.80320000      -0.05425000
C       -5.70255000      -1.65690000       0.60841000      -0.39313000
C       -6.76056000      -2.74810000       0.40612000      -0.39456000
C       -6.10254000      -4.12341000       0.24143000      -0.38529000
C       -5.17663000      -4.44383000       1.42731000      -0.41539000
N       -3.78057000      -0.93369000       1.96502000      -0.67800000
C       -3.74056000      -0.01226000       2.96704000       0.37408000
N       -2.91169000       1.02346000       2.65858000      -0.67351000
C       -2.36649000       2.00758000       3.50935000       0.15946000
S       -4.64179000      -0.12025000       4.39921000      -0.34591000
C       -3.61650000      -3.63357000       4.08018000      -0.38911000
H       -5.38079000      -1.98338000       2.71595000       0.24519000
H       -5.08628000      -1.55227000      -0.29549000       0.20902000
H       -6.16981000      -0.68385000       0.79245000       0.22584000
H       -7.38096000      -2.51590000      -0.46725000       0.21536000
H       -7.43310000      -2.76844000       1.27546000       0.20125000
H       -5.51419000      -4.13907000      -0.68694000       0.20074000
H       -6.86041000      -4.90983000       0.14915000       0.21419000
H       -5.77644000      -4.51522000       2.34425000       0.21077000
H       -4.70423000      -5.41944000       1.27060000       0.21828000
H       -3.50403000      -3.28361000       0.68109000       0.23659000
H       -2.64302000       1.11884000       1.67274000       0.44517000
H       -3.10386000      -0.84677000       1.20042000       0.44834000
H       -2.76751000      -3.82744000       4.73802000       0.22589000
H       -4.37549000      -4.40745000       4.20879000       0.20972000
H       -4.02133000      -2.64373000       4.30302000       0.24635000
H       -1.43258000      -4.89775000       2.97859000       0.24740000
H       -2.14310000      -5.01340000       1.35398000       0.21644000
H       -2.97971000      -5.78832000       2.73031000       0.21219000
H        1.02074000       0.01314000      -0.38189000       0.25058000
H       -2.35869000      -2.90402000       2.65848000       0.49098000
H       -0.36294000       0.28349000       2.47832000       0.26211000
H        1.98820000      -1.73508000       2.36877000       0.23126000
H        0.26578000       2.51527000       2.93707000       0.23990000
H        1.86499000       4.38916000       2.85179000       0.23583000
H        4.81708000       1.78002000       1.10338000       0.23545000
H        3.20745000      -0.09381000       1.18738000       0.22829000
C       -2.29349000       3.32230000       3.02844000      -0.23793000
C       -1.65290000       4.30815000       3.78083000      -0.21470000
C       -1.09023000       3.99213000       5.01948000      -0.23167000
C       -1.16962000       2.68027000       5.49752000      -0.20375000
C       -1.79614000       1.68606000       4.74831000      -0.21851000
H       -2.73475000       3.55436000       2.06388000       0.23075000
H       -0.59423000       4.75921000       5.60740000       0.21949000
H       -1.83825000       0.66156000       5.09858000       0.23924000
O        0.28477000      -2.24535000      -0.33157000      -0.55934000
O        0.13562000       2.25591000      -0.46146000      -0.55399000
C       -0.13732000      -3.61096000      -0.31937000      -0.23303000
H       -0.15247000      -3.97465000       0.71367000       0.19173000
H       -1.12190000      -3.72354000      -0.78127000       0.19031000
C       -0.41900000       3.57736000      -0.42676000      -0.22579000
H       -1.27550000       3.66014000      -1.10150000       0.19232000
H       -0.73683000       3.83124000       0.58895000       0.18646000
H        0.61332000      -4.16310000      -0.88806000       0.19485000
H        0.38769000       4.23873000      -0.74518000       0.19510000
C        4.37647000       4.29621000       1.90681000       0.32449000
N        5.12897000       5.18215000       1.85322000      -0.36425000
H       -0.72519000       2.42391000       6.45529000       0.22097000
H       -1.60113000       5.32461000       3.39950000       0.21966000
