91
R5TS18majorsNMe2cPh.xyz  (col5 = NBO charge)
O       -0.64346000       2.43249000      -2.63832000      -0.54104000
N       -1.15959000       1.39432000      -3.13958000       0.43825000
C       -0.66489000       0.15377000      -2.92732000      -0.15496000
C        0.49391000      -0.06524000      -2.15729000      -0.08437000
C        1.18087000      -1.36060000      -2.23564000      -0.14636000
O       -1.87984000       1.49601000       0.00921000      -0.71248000
C       -0.67271000       1.26877000       0.12094000       0.81839000
C        0.00946000       0.00022000      -0.01884000      -0.48736000
C       -0.70156000      -1.25001000       0.14549000       0.81591000
O       -1.88817000      -1.47985000      -0.09287000      -0.70269000
C       -3.33385000      -2.06032000      -4.53113000      -0.22685000
C       -3.37740000      -2.21905000      -3.13860000       0.16508000
C       -3.02180000      -3.45111000      -2.56796000      -0.23778000
C       -2.62992000      -4.51337000      -3.38201000      -0.21415000
C       -2.59668000      -4.36227000      -4.77026000      -0.23588000
C       -2.95214000      -3.13386000      -5.33455000      -0.20324000
N       -3.63411000      -1.15139000      -2.25749000      -0.66975000
C       -4.46565000      -0.07987000      -2.39570000       0.37841000
S       -5.79822000      -0.02274000      -3.44377000      -0.35417000
N       -4.11681000       0.92230000      -1.54541000      -0.68160000
C       -4.90630000       2.08338000      -1.19353000      -0.04867000
C       -4.13097000       3.38537000      -1.50620000      -0.01636000
C       -4.91701000       4.62894000      -1.07317000      -0.41459000
C       -5.23962000       4.56537000       0.42818000      -0.38494000
C       -6.02181000       3.29021000       0.76394000      -0.39290000
C       -5.25023000       2.04582000       0.31095000      -0.39731000
N       -3.70061000       3.45069000      -2.96254000      -0.51591000
C       -4.80758000       3.44656000      -3.96684000      -0.38831000
C       -2.74988000       4.57016000      -3.23570000      -0.36353000
O       -2.20342000       1.49418000      -3.89666000      -0.58440000
C        0.54570000      -2.53181000      -2.68566000      -0.16189000
C        1.19817000      -3.75418000      -2.70624000      -0.28189000
C        2.54026000      -3.87594000      -2.27271000       0.21349000
C        3.18151000      -2.69725000      -1.81975000      -0.27872000
C        2.51156000      -1.48307000      -1.80504000      -0.14232000
H       -5.83194000       2.04439000      -1.77449000       0.24226000
H       -4.31312000       1.95741000       0.87588000       0.21785000
H       -5.82728000       1.13397000       0.49816000       0.22326000
H       -6.22130000       3.23724000       1.84079000       0.21375000
H       -6.99988000       3.32163000       0.26233000       0.19907000
H       -4.30090000       4.58041000       1.00003000       0.20029000
H       -5.80420000       5.45903000       0.71901000       0.21213000
H       -5.85761000       4.68968000      -1.63640000       0.20888000
H       -4.34767000       5.53918000      -1.29265000       0.21694000
H       -3.18502000       3.33198000      -0.95698000       0.24226000
H       -3.03295000      -1.15432000      -1.42710000       0.44897000
H       -3.25989000       0.81396000      -0.99314000       0.44940000
H       -4.34841000       3.43527000      -4.95721000       0.22293000
H       -5.41767000       4.34449000      -3.85126000       0.20736000
H       -5.40087000       2.53751000      -3.84817000       0.24622000
H       -2.23506000       4.34020000      -4.16878000       0.23084000
H       -2.00823000       4.60915000      -2.44062000       0.22604000
H       -3.29558000       5.51198000      -3.31547000       0.20506000
H        1.03425000      -0.00766000       0.33182000       0.24716000
H       -3.12521000       2.57129000      -3.18792000       0.48889000
H       -1.24157000      -0.62355000      -3.39827000       0.23296000
H        1.11777000       0.80816000      -1.99332000       0.25125000
H        3.03086000      -0.60222000      -1.43374000       0.21629000
H        4.20488000      -2.72833000      -1.46649000       0.22292000
H        0.64563000      -4.61701000      -3.05749000       0.22462000
H       -0.48782000      -2.51087000      -3.01135000       0.22727000
H       -3.03823000      -3.55191000      -1.48724000       0.23113000
H       -2.29571000      -5.19061000      -5.40579000       0.21578000
H       -3.57462000      -1.09614000      -4.96144000       0.24358000
C       -0.30693000       3.60112000       0.33878000      -0.04787000
C        0.86104000       4.54492000       0.55880000      -0.60259000
H       -0.77494000       3.75597000      -0.63820000       0.19381000
H       -1.07727000       3.71507000       1.11128000       0.18130000
H        0.51597000       5.58494000       0.53967000       0.20905000
H        1.61024000       4.41240000      -0.22810000       0.21097000
H        1.33805000       4.35572000       1.52596000       0.20866000
C       -0.39735000      -3.57248000       0.55685000      -0.04630000
C        0.73303000      -4.49723000       0.96900000      -0.60557000
H       -1.24326000      -3.61650000       1.25169000       0.18833000
H       -0.76833000      -3.81347000      -0.44425000       0.18974000
H        0.38370000      -5.53608000       0.98138000       0.20938000
H        1.10030000      -4.24238000       1.96856000       0.20884000
H        1.56347000      -4.41313000       0.26202000       0.21331000
O        0.21520000       2.26474000       0.37748000      -0.57028000
O        0.14016000      -2.23630000       0.54478000      -0.56586000
N        3.19444000      -5.09791000      -2.28732000      -0.49766000
C        2.42432000      -6.30899000      -2.52147000      -0.36380000
C        4.48662000      -5.22036000      -1.63258000      -0.36449000
H        3.09243000      -7.17159000      -2.48901000       0.20845000
H        1.63100000      -6.45579000      -1.77119000       0.18867000
H        1.95593000      -6.29083000      -3.51241000       0.20171000
H        5.22288000      -4.55048000      -2.09196000       0.20096000
H        4.44009000      -4.99051000      -0.55603000       0.18912000
H        4.85372000      -6.24162000      -1.75039000       0.20845000
H       -2.35662000      -5.46256000      -2.92740000       0.21496000
H       -2.91648000      -3.00146000      -6.41268000       0.21823000
