95
R5TS18majorsOMecNMe2.xyz  (col5 = NBO charge)
O       -0.66058000       2.46495000      -2.65577000      -0.52569000
N       -1.18445000       1.43082000      -3.15036000       0.44639000
C       -0.67877000       0.18533000      -2.95222000      -0.15884000
C        0.48321000      -0.02905000      -2.20064000      -0.08185000
C        1.18332000      -1.31970000      -2.28041000      -0.12459000
O       -1.88081000       1.49452000       0.00448000      -0.71414000
C       -0.67400000       1.26599000       0.12232000       0.81278000
C        0.00928000       0.00041000      -0.01048000      -0.49521000
C       -0.69720000      -1.25224000       0.13139000       0.80943000
O       -1.89008000      -1.47353000      -0.08378000      -0.70311000
C       -3.22615000      -2.01003000      -4.52950000      -0.20184000
C       -3.35104000      -2.20578000      -3.14921000       0.11375000
C       -3.01371000      -3.45525000      -2.61927000      -0.20871000
C       -2.55824000      -4.48546000      -3.43793000      -0.27652000
C       -2.44439000      -4.31097000      -4.83475000       0.18433000
C       -2.78649000      -3.04064000      -5.35297000      -0.26477000
N       -3.63640000      -1.15834000      -2.24624000      -0.66318000
C       -4.47735000      -0.10019000      -2.37859000       0.37749000
S       -5.79444000      -0.04083000      -3.44830000      -0.36447000
N       -4.14663000       0.90096000      -1.51424000      -0.68817000
C       -4.95946000       2.03862000      -1.14437000      -0.04874000
C       -4.20784000       3.35908000      -1.43534000      -0.01565000
C       -5.01684000       4.58311000      -0.99100000      -0.41490000
C       -5.34116000       4.49390000       0.50892000      -0.38478000
C       -6.09882000       3.19934000       0.82724000      -0.39308000
C       -5.30407000       1.97512000       0.35893000      -0.39694000
N       -3.77218000       3.44825000      -2.88951000      -0.51350000
C       -4.87581000       3.44633000      -3.89886000      -0.38896000
C       -2.83038000       4.58002000      -3.14385000      -0.36344000
O       -2.23854000       1.52729000      -3.88506000      -0.57018000
C        0.55398000      -2.49734000      -2.73505000      -0.17006000
C        1.23640000      -3.70141000      -2.77359000      -0.25463000
C        2.57399000      -3.77381000      -2.35439000       0.33802000
C        3.22015000      -2.61519000      -1.90351000      -0.30276000
C        2.51956000      -1.41108000      -1.86884000      -0.14363000
H       -5.88334000       1.99140000      -1.72788000       0.24219000
H       -4.36562000       1.89634000       0.92370000       0.21645000
H       -5.86404000       1.05040000       0.53416000       0.22375000
H       -6.29842000       3.12924000       1.90309000       0.21372000
H       -7.07677000       3.21851000       0.32483000       0.19918000
H       -4.40403000       4.52042000       1.08288000       0.20029000
H       -5.92388000       5.37248000       0.80975000       0.21209000
H       -5.95727000       4.63311000      -1.55549000       0.20927000
H       -4.46403000       5.50655000      -1.19791000       0.21664000
H       -3.26280000       3.31534000      -0.88317000       0.24182000
H       -3.02853000      -1.15473000      -1.42129000       0.44652000
H       -3.29191000       0.79517000      -0.95889000       0.44864000
H       -4.41234000       3.45707000      -4.88715000       0.22289000
H       -5.49679000       4.33473000      -3.76985000       0.20779000
H       -5.45625000       2.52658000      -3.79656000       0.24811000
H       -2.30553000       4.36519000      -4.07472000       0.23141000
H       -2.09643000       4.61984000      -2.34153000       0.22537000
H       -3.38634000       5.51621000      -3.21710000       0.20592000
H        1.04015000      -0.00727000       0.32080000       0.24491000
H       -3.19463000       2.58005000      -3.12086000       0.48918000
H       -1.26290000      -0.59177000      -3.41441000       0.23654000
H        1.09396000       0.84774000      -2.01133000       0.25226000
H        3.02303000      -0.51960000      -1.50230000       0.21924000
H        4.25239000      -2.64013000      -1.57467000       0.22863000
H        0.74512000      -4.60679000      -3.11571000       0.22810000
H       -0.48343000      -2.48870000      -3.04877000       0.23353000
H       -3.07864000      -3.60586000      -1.54587000       0.22849000
H       -3.44580000      -1.03441000      -4.94709000       0.24183000
C       -0.31334000       3.60010000       0.33671000      -0.04780000
C        0.85275000       4.54867000       0.54654000      -0.60244000
H       -0.78938000       3.75240000      -0.63691000       0.19328000
H       -1.07862000       3.71351000       1.11441000       0.18090000
H        0.50392000       5.58748000       0.52863000       0.20882000
H        1.59650000       4.41788000      -0.24586000       0.21025000
H        1.33784000       4.36249000       1.51026000       0.20867000
C       -0.40233000      -3.58278000       0.49522000      -0.04643000
C        0.72314000      -4.52888000       0.86979000      -0.60362000
H       -1.23115000      -3.62318000       1.21055000       0.18797000
H       -0.80414000      -3.80745000      -0.49797000       0.18956000
H        0.35104000      -5.55895000       0.90443000       0.21113000
H        1.13309000      -4.27385000       1.85264000       0.20752000
H        1.52796000      -4.47498000       0.13117000       0.21113000
O        0.21343000       2.26616000       0.37469000      -0.57278000
O        0.15099000      -2.25241000       0.48536000      -0.56905000
O        3.14479000      -5.01079000      -2.41297000      -0.54665000
C        4.48801000      -5.15370000      -1.97447000      -0.22063000
H        4.59857000      -4.87547000      -0.91765000       0.17910000
H        4.73201000      -6.21055000      -2.09691000       0.19907000
H        5.17725000      -4.54986000      -2.58012000       0.17914000
H       -2.69391000      -2.83746000      -6.41276000       0.22189000
H       -2.29591000      -5.42890000      -2.97470000       0.22014000
N       -2.01635000      -5.34789000      -5.66893000      -0.51270000
C       -1.60295000      -5.01749000      -7.02312000      -0.36405000
C       -1.39778000      -6.51206000      -5.06015000      -0.36254000
H       -0.76910000      -4.29611000      -7.05463000       0.18504000
H       -1.28901000      -5.93032000      -7.53436000       0.20458000
H       -2.43852000      -4.59559000      -7.59255000       0.19998000
H       -0.48566000      -6.26861000      -4.48719000       0.18017000
H       -2.09726000      -7.01568000      -4.38373000       0.19971000
H       -1.12978000      -7.22653000      -5.84171000       0.20602000
