84
R5TS3majorsCN.xyz  (col5 = NBO charge)
O       -1.02318000       2.31973000      -2.77984000      -0.49625000
N       -1.54125000       1.23787000      -3.15149000       0.46036000
C       -0.91812000       0.02816000      -2.95783000      -0.15136000
C        0.31466000      -0.03805000      -2.32532000      -0.08659000
C        1.14834000      -1.24634000      -2.35372000      -0.05957000
O       -1.87939000       1.50673000       0.02622000      -0.72541000
C       -0.66849000       1.26922000       0.09080000       0.80324000
C       -0.00119000       0.00029000       0.00420000      -0.50873000
C       -0.69753000      -1.25227000       0.14037000       0.80180000
O       -1.88620000      -1.48882000      -0.09765000      -0.71927000
C       -4.10083000      -1.96421000      -4.22917000      -0.17493000
C       -3.81594000      -2.10187000      -2.86140000       0.18432000
C       -3.26874000      -3.30324000      -2.39281000      -0.19584000
C       -3.02079000      -4.35168000      -3.27934000      -0.14811000
C       -3.32117000      -4.23401000      -4.63352000      -0.18114000
C       -3.86329000      -3.03066000      -5.09168000      -0.14066000
N       -3.93781000      -1.05474000      -1.94217000      -0.66887000
C       -4.78957000       0.01669000      -1.95091000       0.37177000
S       -6.26877000       0.06030000      -2.77419000      -0.32872000
C       -2.38670000      -5.59888000      -2.73467000       1.08131000
C       -4.22811000      -2.89425000      -6.54685000       1.07914000
N       -4.31292000       1.01954000      -1.17312000      -0.67623000
C       -5.00143000       2.23457000      -0.79074000      -0.05000000
C       -4.22619000       3.47341000      -1.30027000      -0.01419000
C       -4.89053000       4.78016000      -0.85291000      -0.41650000
C       -4.99718000       4.82731000       0.68022000      -0.38491000
C       -5.77259000       3.61635000       1.21211000      -0.39343000
C       -5.12412000       2.30838000       0.74562000      -0.39735000
N       -4.00390000       3.42049000      -2.80893000      -0.51152000
C       -5.24459000       3.41309000      -3.64711000      -0.38785000
C       -3.06106000       4.47912000      -3.28778000      -0.36346000
O       -2.67582000       1.23076000      -3.73899000      -0.52959000
C        0.62845000      -2.52664000      -2.61928000      -0.18861000
C        1.45832000      -3.63954000      -2.64196000      -0.14838000
C        2.83335000      -3.49647000      -2.39168000      -0.18345000
C        3.36453000      -2.22453000      -2.11697000      -0.14803000
C        2.52587000      -1.11971000      -2.09838000      -0.17310000
H       -6.00214000       2.20499000      -1.23024000       0.24411000
H       -4.11953000       2.20968000       1.17693000       0.21896000
H       -5.70410000       1.44022000       1.07589000       0.22536000
H       -5.81654000       3.64289000       2.30699000       0.21640000
H       -6.81063000       3.66301000       0.85281000       0.20044000
H       -3.98648000       4.83457000       1.11244000       0.20057000
H       -5.47901000       5.76409000       0.98257000       0.21480000
H       -5.89871000       4.85156000      -1.28152000       0.21116000
H       -4.32181000       5.64510000      -1.21181000       0.21899000
H       -3.21318000       3.40628000      -0.88935000       0.24206000
H       -3.21850000      -1.06502000      -1.20923000       0.45469000
H       -3.38791000       0.90618000      -0.74304000       0.45205000
H       -4.93501000       3.31827000      -4.68960000       0.22466000
H       -5.78766000       4.34869000      -3.50533000       0.21198000
H       -5.85590000       2.54845000      -3.38273000       0.24589000
H       -2.69661000       4.17750000      -4.27003000       0.22996000
H       -2.21353000       4.53599000      -2.60852000       0.22829000
H       -3.58376000       5.43447000      -3.34974000       0.21032000
H        1.04786000      -0.00470000       0.26962000       0.24684000
H       -3.51147000       2.50943000      -3.02654000       0.48632000
H       -1.48716000      -0.81311000      -3.31816000       0.23564000
H        0.83181000       0.90399000      -2.18164000       0.25698000
H        2.93683000      -0.13799000      -1.87890000       0.22929000
H        4.42602000      -2.11493000      -1.92041000       0.23716000
H        1.04432000      -4.62038000      -2.84156000       0.24219000
H       -0.43388000      -2.66718000      -2.78808000       0.23095000
H       -3.02478000      -3.39939000      -1.34036000       0.25494000
H       -3.12778000      -5.05008000      -5.31811000       0.25290000
H       -4.47892000      -1.02574000      -4.60843000       0.26403000
F       -1.10286000      -5.35384000      -2.32402000      -0.37453000
F       -3.03811000      -6.06455000      -1.64885000      -0.35189000
F       -2.32280000      -6.59248000      -3.63932000      -0.35036000
F       -3.42248000      -3.64347000      -7.33525000      -0.36061000
F       -4.13773000      -1.61505000      -6.97197000      -0.35637000
F       -5.49598000      -3.30180000      -6.78018000      -0.35546000
C       -0.29957000       3.60131000       0.17296000      -0.22384000
H       -0.73650000       3.78422000      -0.81373000       0.18684000
H       -1.06323000       3.75308000       0.94302000       0.18397000
C       -0.40517000      -3.55962000       0.61007000      -0.22695000
H       -1.27235000      -3.56766000       1.27632000       0.19134000
H       -0.70080000      -3.93193000      -0.37350000       0.18573000
O        0.23634000       2.27966000       0.22965000      -0.56282000
O        0.15318000      -2.24152000       0.51555000      -0.55649000
H        0.54557000       4.27052000       0.34321000       0.19280000
H        0.39342000      -4.18270000       1.01474000       0.19622000
C        3.69059000      -4.64414000      -2.40816000       0.32290000
N        4.38914000      -5.57453000      -2.41936000      -0.35831000
