92
R5TS18minorsCNcNMe2.xyz  (col5 = NBO charge)
O        0.65382000      -3.42894000       3.00677000      -0.48554000
N        0.26677000      -2.24777000       2.83647000       0.45962000
C        1.16634000      -1.26080000       2.51219000      -0.13626000
C        0.71600000       0.02170000       2.23485000      -0.09027000
C        1.62425000       1.16900000       2.11862000      -0.05410000
O       -1.85908000      -1.55558000      -0.05249000      -0.71541000
C       -0.65560000      -1.27963000      -0.09304000       0.79738000
C        0.00329000      -0.00129000      -0.02940000      -0.52370000
C       -0.71104000       1.24595000      -0.13111000       0.79459000
O       -1.90316000       1.45711000       0.11186000      -0.70031000
C        2.93406000       1.06027000       1.61826000      -0.18033000
C        1.15968000       2.42922000       2.53116000      -0.18320000
C        1.97920000       3.54746000       2.46749000      -0.15397000
C        3.28676000       3.42872000       1.96824000      -0.19099000
C        3.75825000       2.17399000       1.53911000      -0.14891000
O       -0.96591000      -1.93361000       2.95830000      -0.53948000
N       -2.82342000      -3.88457000       2.98447000      -0.51483000
C       -2.04317000      -5.15306000       2.83075000      -0.37690000
C       -3.86665000      -3.69263000       1.88898000      -0.00416000
C       -4.60306000      -2.34227000       2.02823000      -0.05390000
C       -5.56198000      -2.16352000       0.83309000      -0.39426000
C       -6.55485000      -3.32579000       0.71591000      -0.39452000
C       -5.81690000      -4.66665000       0.62226000      -0.38516000
C       -4.85877000      -4.85898000       1.81016000      -0.41596000
N       -3.66217000      -1.24735000       2.10083000      -0.68517000
C       -3.66832000      -0.24418000       3.02554000       0.37508000
N       -2.91192000       0.81006000       2.62799000      -0.66425000
C       -2.44381000       1.90497000       3.39238000       0.10840000
S       -4.53366000      -0.30935000       4.48677000      -0.36281000
C       -3.32505000      -3.75288000       4.38909000      -0.39073000
H       -5.18939000      -2.33151000       2.95169000       0.24540000
H       -4.96570000      -2.07767000      -0.08598000       0.21032000
H       -6.08421000      -1.21038000       0.96628000       0.22651000
H       -7.20031000      -3.18517000      -0.15887000       0.21540000
H       -7.21286000      -3.33357000       1.59656000       0.20104000
H       -5.24009000      -4.70277000      -0.31274000       0.20099000
H       -6.52621000      -5.50164000       0.58918000       0.21403000
H       -5.44193000      -4.90969000       2.73920000       0.21091000
H       -4.33054000      -5.81277000       1.70518000       0.21799000
H       -3.26626000      -3.64997000       0.97166000       0.23167000
H       -2.64231000       0.85235000       1.63706000       0.44671000
H       -3.03365000      -1.15065000       1.29554000       0.44672000
H       -2.46980000      -3.89111000       5.05332000       0.22318000
H       -4.07414000      -4.52292000       4.58274000       0.21054000
H       -3.74190000      -2.75396000       4.54150000       0.24914000
H       -1.08616000      -5.01155000       3.33384000       0.24485000
H       -1.86138000      -5.33934000       1.77187000       0.21581000
H       -2.60257000      -5.98378000       3.26284000       0.21470000
H        1.03204000       0.01027000      -0.36241000       0.24461000
H       -2.11329000      -3.10376000       2.87982000       0.48969000
H       -0.30059000       0.24710000       2.53137000       0.26456000
H        2.18227000      -1.61155000       2.41473000       0.23288000
H        0.15090000       2.53002000       2.90974000       0.24466000
H        1.60789000       4.51290000       2.79618000       0.23413000
H        4.76489000       2.08672000       1.14327000       0.23571000
H        3.30024000       0.10080000       1.26534000       0.22892000
C       -2.45345000       3.17618000       2.81094000      -0.20391000
C       -1.86365000       4.26411000       3.45020000      -0.28204000
C       -1.25489000       4.12493000       4.71752000       0.18678000
C       -1.26403000       2.83371000       5.29603000      -0.26787000
C       -1.84118000       1.74906000       4.64559000      -0.19394000
H       -2.89321000       3.30143000       1.82694000       0.23371000
H       -1.81146000       0.76580000       5.10055000       0.23521000
O        0.28826000      -2.26590000      -0.17967000      -0.57646000
O        0.12870000       2.25652000      -0.48225000      -0.57245000
C       -0.18930000      -3.61602000      -0.15044000      -0.04386000
C        1.02497000      -4.52498000      -0.12226000      -0.60657000
H       -0.79801000      -3.74942000       0.74849000       0.17268000
H       -0.83049000      -3.79532000      -1.02173000       0.18648000
H        0.70996000      -5.57501000      -0.12258000       0.20779000
H        1.60600000      -4.33719000       0.78472000       0.22022000
H        1.65843000      -4.35419000      -0.99855000       0.20952000
C       -0.41986000       3.58874000      -0.44963000      -0.04733000
C        0.67731000       4.53013000      -0.91056000      -0.60358000
H       -1.30182000       3.63356000      -1.09721000       0.19049000
H       -0.74435000       3.81279000       0.57245000       0.18574000
H        0.31629000       5.56452000      -0.89766000       0.21154000
H        0.99489000       4.28600000      -1.92938000       0.21010000
H        1.54815000       4.45685000      -0.25224000       0.20926000
C        4.13023000       4.58347000       1.88644000       0.32361000
N        4.80896000       5.52653000       1.82167000      -0.36314000
H       -0.79861000       2.66093000       6.25849000       0.22328000
H       -1.88101000       5.22316000       2.94714000       0.22237000
N       -0.66416000       5.20892000       5.36843000      -0.51253000
C       -0.46347000       6.43882000       4.62231000      -0.36267000
C        0.26007000       4.93833000       6.45920000      -0.36418000
H       -1.42100000       6.84495000       4.27820000       0.20189000
H       -0.00744000       7.18551000       5.27553000       0.20857000
H        0.18710000       6.31018000       3.73900000       0.17775000
H       -0.25334000       4.44996000       7.29494000       0.20014000
H        1.10362000       4.29723000       6.15362000       0.18538000
H        0.66181000       5.88296000       6.83142000       0.20698000
