80
R5TS3majorsCNcNO2.xyz  (col5 = NBO charge)
O       -0.74114000       2.49571000      -2.67309000      -0.50083000
N       -1.28476000       1.46268000      -3.13598000       0.45551000
C       -0.76061000       0.21365000      -2.96117000      -0.15433000
C        0.42280000       0.00189000      -2.25932000      -0.09128000
C        1.11919000      -1.29478000      -2.33994000      -0.06083000
O       -1.87930000       1.50211000       0.00018000      -0.71771000
C       -0.67351000       1.26679000       0.12504000       0.80821000
C        0.00467000       0.00143000      -0.00462000      -0.49622000
C       -0.69418000      -1.25496000       0.11980000       0.80484000
O       -1.89049000      -1.48022000      -0.07646000      -0.70927000
C       -3.46739000      -1.95177000      -4.38593000      -0.23255000
C       -3.46613000      -2.10703000      -2.98716000       0.21371000
C       -2.99100000      -3.30707000      -2.42027000      -0.23191000
C       -2.46750000      -4.30757000      -3.22278000      -0.18370000
C       -2.43756000      -4.11807000      -4.60576000       0.02686000
C       -2.95652000      -2.96121000      -5.19229000      -0.17176000
N       -3.77545000      -1.07892000      -2.09593000      -0.66876000
C       -4.58961000       0.01733000      -2.24527000       0.36789000
S       -5.92311000       0.08123000      -3.27989000      -0.31829000
N       -4.20804000       1.01318000      -1.40745000      -0.67566000
C       -4.97946000       2.17875000      -1.02365000      -0.04861000
C       -4.20544000       3.47727000      -1.35086000      -0.01431000
C       -4.96492000       4.72278000      -0.87884000      -0.41577000
C       -5.23624000       4.64678000       0.63228000      -0.38510000
C       -6.01604000       3.37439000       0.98292000      -0.39357000
C       -5.27025000       2.12894000       0.49180000      -0.39631000
N       -3.82722000       3.55306000      -2.82368000      -0.51047000
C       -4.97168000       3.57629000      -3.78737000      -0.38674000
C       -2.87133000       4.66472000      -3.11867000      -0.36414000
O       -2.37391000       1.54342000      -3.81145000      -0.55071000
C        0.51387000      -2.43813000      -2.89330000      -0.19085000
C        1.17827000      -3.65721000      -2.93450000      -0.15477000
C        2.47895000      -3.75801000      -2.41216000      -0.18363000
C        3.10283000      -2.62070000      -1.86840000      -0.14832000
C        2.42721000      -1.40930000      -1.83837000      -0.16733000
H       -5.92425000       2.15061000      -1.57324000       0.24272000
H       -4.31384000       2.02859000       1.02195000       0.21682000
H       -5.84628000       1.21924000       0.69165000       0.22496000
H       -6.17750000       3.31135000       2.06519000       0.21644000
H       -7.01082000       3.41704000       0.51674000       0.20057000
H       -4.27886000       4.65120000       1.17235000       0.20071000
H       -5.78423000       5.54138000       0.94929000       0.21484000
H       -5.92373000       4.79679000      -1.40843000       0.21078000
H       -4.39548000       5.63009000      -1.10881000       0.21916000
H       -3.23951000       3.41046000      -0.83824000       0.24121000
H       -3.18691000      -1.09458000      -1.25481000       0.45368000
H       -3.33001000       0.89886000      -0.88834000       0.45155000
H       -4.55067000       3.57189000      -4.79445000       0.22483000
H       -5.56294000       4.48093000      -3.63661000       0.21129000
H       -5.57320000       2.67506000      -3.65653000       0.24484000
H       -2.39961000       4.44708000      -4.07709000       0.23115000
H       -2.09823000       4.68156000      -2.35323000       0.22676000
H       -3.40793000       5.61360000      -3.15932000       0.20952000
H        1.04129000      -0.00657000       0.30649000       0.24686000
H       -3.27994000       2.67350000      -3.06728000       0.48534000
H       -1.37157000      -0.56083000      -3.39030000       0.23281000
H        1.03209000       0.87658000      -2.05920000       0.25816000
H        2.90888000      -0.53746000      -1.40408000       0.22871000
H        4.10956000      -2.69936000      -1.47126000       0.23703000
H        0.69473000      -4.52582000      -3.37307000       0.24242000
H       -0.48853000      -2.38963000      -3.29727000       0.23004000
H       -2.99848000      -3.41527000      -1.34209000       0.24525000
H       -3.81941000      -1.02537000      -4.82009000       0.25459000
C       -0.31739000       3.58831000       0.36571000      -0.22468000
H       -0.69142000       3.82344000      -0.63520000       0.19005000
H       -1.12695000       3.69752000       1.09482000       0.18393000
C       -0.37416000      -3.58045000       0.44981000      -0.22493000
H       -1.21537000      -3.65236000       1.14507000       0.19126000
H       -0.70514000      -3.86621000      -0.55242000       0.18386000
O        0.21534000       2.26336000       0.38185000      -0.55795000
O        0.16888000      -2.25416000       0.43732000      -0.55694000
H        0.51521000       4.24443000       0.62451000       0.19344000
H        0.44450000      -4.22634000       0.76904000       0.19706000
C        3.17101000      -5.01243000      -2.42556000       0.32174000
N        3.73909000      -6.02769000      -2.42229000      -0.35548000
N       -1.79999000      -5.12677000      -5.44637000       0.50113000
O       -1.95871000      -5.05169000      -6.66533000      -0.39395000
O       -1.11903000      -5.99339000      -4.88466000      -0.40910000
H       -2.07169000      -5.22207000      -2.79830000       0.25147000
H       -2.91521000      -2.84792000      -6.26881000       0.25272000
