77
R5TS3majorcPh.xyz  (col5 = NBO charge)
O       -0.75509000       2.43227000      -2.68103000      -0.51451000
N       -1.27845000       1.39024000      -3.15380000       0.45143000
C       -0.74564000       0.14983000      -2.96109000      -0.15791000
C        0.43295000      -0.03617000      -2.23665000      -0.08268000
C        1.15175000      -1.32089000      -2.29546000      -0.09344000
O       -1.88007000       1.49642000       0.00908000      -0.71664000
C       -0.67239000       1.26603000       0.11672000       0.80878000
C        0.00689000       0.00051000      -0.00946000      -0.49956000
C       -0.69820000      -1.25007000       0.13541000       0.80620000
O       -1.88904000      -1.47774000      -0.08782000      -0.70679000
C       -3.48552000      -2.05301000      -4.51219000      -0.22730000
C       -3.45788000      -2.23142000      -3.12180000       0.16333000
C       -3.05770000      -3.46583000      -2.58685000      -0.23966000
C       -2.69406000      -4.51191000      -3.43424000      -0.21265000
C       -2.73336000      -4.34185000      -4.82006000      -0.23467000
C       -3.13181000      -3.11094000      -5.34857000      -0.20296000
N       -3.68822000      -1.18080000      -2.21269000      -0.66979000
C       -4.54133000      -0.12135000      -2.29306000       0.37686000
S       -5.91440000      -0.06040000      -3.28688000      -0.35114000
N       -4.17289000       0.86928000      -1.43574000      -0.68386000
C       -4.96548000       2.01120000      -1.03182000      -0.04950000
C       -4.22642000       3.33031000      -1.35968000      -0.01592000
C       -5.01540000       4.55488000      -0.88211000      -0.41524000
C       -5.27234000       4.46834000       0.63105000      -0.38490000
C       -6.01578000       3.17497000       0.98532000      -0.39310000
C       -5.24278000       1.94949000       0.48529000      -0.39730000
N       -3.85721000       3.41644000      -2.83389000      -0.51220000
C       -5.00635000       3.41888000      -3.79146000      -0.38848000
C       -2.92582000       4.54692000      -3.13120000      -0.36387000
O       -2.35322000       1.46403000      -3.85491000      -0.55840000
C        0.52817000      -2.51135000      -2.71065000      -0.19530000
C        1.23760000      -3.70887000      -2.74145000      -0.20911000
C        2.57987000      -3.74480000      -2.35580000      -0.19989000
C        3.21011000      -2.56904000      -1.93995000      -0.21011000
C        2.50136000      -1.37107000      -1.90914000      -0.17278000
H       -5.91490000       1.96449000      -1.57253000       0.24279000
H       -4.28078000       1.87104000       1.00833000       0.21801000
H       -5.79557000       1.02559000       0.68587000       0.22392000
H       -6.16720000       3.10700000       2.06903000       0.21447000
H       -7.01511000       3.19362000       0.52697000       0.19943000
H       -4.31055000       4.49549000       1.16264000       0.20044000
H       -5.84051000       5.34783000       0.95571000       0.21282000
H       -5.98025000       4.60361000      -1.40381000       0.20950000
H       -4.47279000       5.47812000      -1.11483000       0.21736000
H       -3.25712000       3.28751000      -0.85181000       0.24376000
H       -3.05930000      -1.19326000      -1.40331000       0.44907000
H       -3.29628000       0.76109000      -0.91516000       0.45046000
H       -4.58989000       3.42204000      -4.80053000       0.22325000
H       -5.61281000       4.31312000      -3.63741000       0.20911000
H       -5.58999000       2.50566000      -3.65780000       0.24710000
H       -2.45465000       4.33984000      -4.09221000       0.23050000
H       -2.14895000       4.57670000      -2.37022000       0.22707000
H       -3.48162000       5.48521000      -3.16667000       0.20724000
H        1.04327000      -0.00720000       0.30323000       0.24699000
H       -3.29297000       2.54790000      -3.08402000       0.48786000
H       -1.32972000      -0.63802000      -3.40564000       0.23679000
H        1.03065000       0.85158000      -2.05900000       0.25353000
H        2.99128000      -0.45932000      -1.57549000       0.21898000
H        4.25389000      -2.58660000      -1.63835000       0.22030000
H        3.13148000      -4.68080000      -2.37973000       0.21871000
H        0.73344000      -4.61457000      -3.06791000       0.22102000
H       -0.51701000      -2.51814000      -2.99828000       0.22880000
H       -3.02266000      -3.58240000      -1.50799000       0.23099000
H       -2.45457000      -5.15771000      -5.48112000       0.21677000
H       -3.76206000      -1.08760000      -4.91709000       0.24290000
C       -0.31957000       3.58997000       0.32438000      -0.22438000
H       -0.70296000       3.80978000      -0.67638000       0.19037000
H       -1.12403000       3.70720000       1.05814000       0.18283000
C       -0.41475000      -3.56181000       0.53931000      -0.22421000
H       -1.24596000      -3.61351000       1.24887000       0.18883000
H       -0.76956000      -3.85278000      -0.45315000       0.18731000
O        0.21842000       2.26825000       0.35465000      -0.56076000
O        0.14884000      -2.24573000       0.50642000      -0.55556000
H        0.51230000       4.25362000       0.56708000       0.19118000
H        0.39899000      -4.21757000       0.85204000       0.19287000
H       -3.15318000      -2.96413000      -6.42519000       0.21839000
H       -2.38675000      -5.46361000      -3.00778000       0.21631000
