85
R5TS3majorsNO2.xyz  (col5 = NBO charge)
O       -1.05386000       2.32443000      -2.78720000      -0.49263000
N       -1.57523000       1.24052000      -3.14579000       0.46187000
C       -0.94530000       0.03159000      -2.95588000      -0.15026000
C        0.29307000      -0.02715000      -2.33695000      -0.08961000
C        1.13327000      -1.23125000      -2.36561000      -0.05140000
O       -1.87978000       1.50504000       0.02606000      -0.72561000
C       -0.66857000       1.26878000       0.09032000       0.80227000
C       -0.00078000       0.00031000       0.00541000      -0.50888000
C       -0.69707000      -1.25241000       0.13902000       0.80076000
O       -1.88660000      -1.48658000      -0.09687000      -0.71946000
C       -4.16194000      -1.96769000      -4.20520000      -0.17540000
C       -3.84841000      -2.10264000      -2.84349000       0.18417000
C       -3.28044000      -3.29896000      -2.38654000      -0.19739000
C       -3.03976000      -4.34474000      -3.27803000      -0.14762000
C       -3.36821000      -4.22990000      -4.62587000      -0.18133000
C       -3.93123000      -3.03182000      -5.07248000      -0.14025000
N       -3.96182000      -1.05803000      -1.92013000      -0.66825000
C       -4.81563000       0.01164000      -1.91324000       0.37141000
S       -6.30554000       0.05724000      -2.71664000      -0.32776000
C       -2.38241000      -5.58542000      -2.74548000       1.08119000
C       -4.32705000      -2.89891000      -6.51989000       1.07918000
N       -4.32998000       1.01222000      -1.13758000      -0.67635000
C       -5.01505000       2.22493000      -0.74186000      -0.05015000
C       -4.24797000       3.46674000      -1.25650000      -0.01421000
C       -4.90991000       4.77069000      -0.79804000      -0.41632000
C       -4.99776000       4.81320000       0.73649000      -0.38483000
C       -5.76352000       3.59885000       1.27474000      -0.39338000
C       -5.11849000       2.29354000       0.79613000      -0.39717000
N       -4.04218000       3.41819000      -2.76792000      -0.51076000
C       -5.29228000       3.41054000      -3.59237000      -0.38786000
C       -3.10674000       4.48017000      -3.25411000      -0.36321000
O       -2.71734000       1.22723000      -3.71571000      -0.52559000
C        0.61753000      -2.51574000      -2.62192000      -0.18766000
C        1.45299000      -3.62537000      -2.64368000      -0.17983000
C        2.81437000      -3.44862000      -2.40292000       0.07080000
C        3.35946000      -2.19248000      -2.13908000      -0.18120000
C        2.51250000      -1.09333000      -2.12088000      -0.17040000
H       -6.02118000       2.19558000      -1.16883000       0.24428000
H       -4.10836000       2.19535000       1.21443000       0.21879000
H       -5.69267000       1.42328000       1.13096000       0.22538000
H       -5.79333000       3.62215000       2.37016000       0.21638000
H       -6.80624000       3.64427000       0.92912000       0.20054000
H       -3.98179000       4.82196000       1.15614000       0.20053000
H       -5.47817000       5.74788000       1.04741000       0.21483000
H       -5.92341000       4.84080000      -1.21409000       0.21111000
H       -4.34765000       5.63800000      -1.16136000       0.21895000
H       -3.23024000       3.40077000      -0.85720000       0.24248000
H       -3.23400000      -1.06882000      -1.19601000       0.45450000
H       -3.39953000       0.89826000      -0.71984000       0.45216000
H       -4.99426000       3.31816000      -4.63843000       0.22468000
H       -5.83488000       4.34519000      -3.44265000       0.21208000
H       -5.89948000       2.54460000      -3.32263000       0.24608000
H       -2.75336000       4.18309000      -4.24176000       0.22985000
H       -2.25151000       4.53619000      -2.58449000       0.22820000
H       -3.63190000       5.43471000      -3.30620000       0.21062000
H        1.04964000      -0.00455000       0.26515000       0.24673000
H       -3.55100000       2.50913000      -2.99223000       0.48583000
H       -1.51696000      -0.81260000      -3.30535000       0.23618000
H        0.80568000       0.91765000      -2.19575000       0.25757000
H        2.91864000      -0.10806000      -1.90948000       0.23068000
H        4.42200000      -2.09679000      -1.95397000       0.25519000
H        1.06337000      -4.61626000      -2.83220000       0.26020000
H       -0.44482000      -2.66317000      -2.78316000       0.23188000
H       -3.01477000      -3.39324000      -1.33917000       0.25511000
H       -3.18014000      -5.04387000      -5.31444000       0.25313000
H       -4.55802000      -1.03367000      -4.57685000       0.26388000
F       -1.09689000      -5.32428000      -2.35234000      -0.37439000
F       -3.01320000      -6.06091000      -1.65145000      -0.35212000
F       -2.31972000      -6.57597000      -3.65299000      -0.34984000
F       -3.52933000      -3.63858000      -7.32498000      -0.36052000
F       -4.25978000      -1.61850000      -6.94595000      -0.35657000
F       -5.59479000      -3.32053000      -6.72754000      -0.35543000
C       -0.30217000       3.60145000       0.16798000      -0.22395000
H       -0.74280000       3.78232000      -0.81744000       0.18683000
H       -1.06336000       3.75340000       0.94046000       0.18404000
C       -0.40607000      -3.56128000       0.60424000      -0.22731000
H       -1.27410000      -3.56756000       1.26929000       0.19165000
H       -0.70039000      -3.93458000      -0.37932000       0.18589000
O        0.23548000       2.28042000       0.22488000      -0.56295000
O        0.15376000      -2.24352000       0.50891000      -0.55710000
H        0.54277000       4.27184000       0.33436000       0.19296000
H        0.39128000      -4.18470000       1.01076000       0.19631000
N        3.70102000      -4.62208000      -2.41916000       0.50019000
O        4.89992000      -4.43634000      -2.20576000      -0.39380000
O        3.19302000      -5.72067000      -2.64380000      -0.38861000
