85
R5TS3majorcNMe2.xyz  (col5 = NBO charge)
O       -0.71328000       2.46660000      -2.66707000      -0.51479000
N       -1.24437000       1.43268000      -3.14878000       0.45137000
C       -0.72723000       0.18552000      -2.95987000      -0.15872000
C        0.44532000      -0.02029000      -2.23136000      -0.08387000
C        1.15048000      -1.31264000      -2.30324000      -0.09217000
O       -1.88028000       1.49547000       0.00368000      -0.71459000
C       -0.67403000       1.26481000       0.12270000       0.80828000
C        0.00834000       0.00062000      -0.00903000      -0.49914000
C       -0.69679000      -1.25120000       0.12876000       0.80514000
O       -1.89006000      -1.47456000      -0.08218000      -0.70367000
C       -3.31201000      -2.01651000      -4.52629000      -0.20084000
C       -3.39816000      -2.22065000      -3.14427000       0.11326000
C       -3.04243000      -3.47207000      -2.63122000      -0.20918000
C       -2.60746000      -4.49626000      -3.46829000      -0.27622000
C       -2.53439000      -4.31367000      -4.86684000       0.18441000
C       -2.89371000      -3.04129000      -5.36777000      -0.26424000
N       -3.66532000      -1.18065000      -2.22726000      -0.66323000
C       -4.51509000      -0.12632000      -2.33013000       0.37670000
S       -5.85383000      -0.06215000      -3.37193000      -0.36259000
N       -4.17181000       0.86777000      -1.46198000      -0.68889000
C       -4.98616000       1.99383000      -1.06071000      -0.04913000
C       -4.25401000       3.32449000      -1.35482000      -0.01553000
C       -5.06536000       4.53587000      -0.88155000      -0.41535000
C       -5.35510000       4.42857000       0.62439000      -0.38480000
C       -6.09220000       3.12315000       0.94687000      -0.39321000
C       -5.29601000       1.91154000       0.44909000      -0.39701000
N       -3.85136000       3.43021000      -2.81818000      -0.51186000
C       -4.97774000       3.43585000      -3.80248000      -0.38882000
C       -2.91899000       4.56802000      -3.08122000      -0.36381000
O       -2.31288000       1.52129000      -3.85830000      -0.56035000
C        0.51893000      -2.48995000      -2.74404000      -0.19372000
C        1.21638000      -3.69434000      -2.78343000      -0.21068000
C        2.55385000      -3.75094000      -2.38434000      -0.20115000
C        3.19230000      -2.58798000      -1.94563000      -0.21047000
C        2.49550000      -1.38331000      -1.90434000      -0.17254000
H       -5.92274000       1.94407000      -1.62335000       0.24233000
H       -4.34448000       1.83664000       0.99198000       0.21651000
H       -5.84292000       0.97962000       0.62735000       0.22397000
H       -6.26690000       3.04087000       2.02613000       0.21401000
H       -7.08128000       3.13698000       0.46661000       0.19941000
H       -4.40580000       4.45957000       1.17777000       0.20025000
H       -5.93994000       5.29802000       0.94667000       0.21244000
H       -6.01887000       4.58097000      -1.42400000       0.20943000
H       -4.52713000       5.46717000      -1.09170000       0.21703000
H       -3.29617000       3.28487000      -0.82491000       0.24282000
H       -3.04238000      -1.18242000      -1.41386000       0.44641000
H       -3.30595000       0.76130000      -0.92447000       0.44894000
H       -4.53722000       3.45551000      -4.80106000       0.22312000
H       -5.59526000       4.32298000      -3.65109000       0.20834000
H       -5.55532000       2.51509000      -3.69455000       0.24824000
H       -2.42068000       4.37065000      -4.03037000       0.23110000
H       -2.16286000       4.59582000      -2.29937000       0.22610000
H       -3.47884000       5.50370000      -3.12299000       0.20692000
H        1.04348000      -0.00759000       0.30792000       0.24646000
H       -3.27764000       2.56775000      -3.06654000       0.48861000
H       -1.31941000      -0.59342000      -3.40867000       0.23792000
H        1.05281000       0.85880000      -2.04381000       0.25315000
H        2.99120000      -0.48208000      -1.55119000       0.21876000
H        4.23264000      -2.62085000      -1.63345000       0.21994000
H        3.09546000      -4.69267000      -2.41515000       0.21790000
H        0.70371000      -4.59007000      -3.12468000       0.21833000
H       -0.52207000      -2.48284000      -3.04598000       0.23100000
H       -3.07856000      -3.62952000      -1.55733000       0.22821000
H       -3.54686000      -1.03979000      -4.93262000       0.24143000
C       -0.32495000       3.58692000       0.35285000      -0.22455000
H       -0.69857000       3.81309000      -0.65015000       0.19086000
H       -1.13676000       3.69816000       1.07946000       0.18256000
C       -0.41412000      -3.56794000       0.49545000      -0.22504000
H       -1.22666000      -3.63309000       1.22541000       0.18824000
H       -0.79694000      -3.83498000      -0.49334000       0.18775000
O        0.21391000       2.26554000       0.37902000      -0.56120000
O        0.15319000      -2.25309000       0.47786000      -0.55668000
H        0.50386000       4.24961000       0.60849000       0.19067000
H        0.40528000      -4.23295000       0.77195000       0.19203000
H       -2.83176000      -2.83173000      -6.42854000       0.22191000
H       -2.33186000      -5.44238000      -3.01840000       0.21971000
N       -2.12854000      -5.34509000      -5.71841000      -0.51231000
C       -1.48448000      -6.50778000      -5.13449000      -0.36239000
C       -1.76587000      -5.00944000      -7.08580000      -0.36423000
H       -1.23220000      -7.21544000      -5.92734000       0.20656000
H       -0.55884000      -6.25931000      -4.58527000       0.17833000
H       -2.16033000      -7.02141000      -4.44165000       0.19986000
H       -2.62325000      -4.58880000      -7.62273000       0.20043000
H       -0.93619000      -4.28510000      -7.14582000       0.18495000
H       -1.46803000      -5.91972000      -7.61097000       0.20484000
