79
R5TS3majorsNO2cPh.xyz  (col5 = NBO charge)
O       -0.75925000       2.50914000      -2.67265000      -0.50017000
N       -1.29891000       1.48009000      -3.14806000       0.45698000
C       -0.77440000       0.22827000      -2.97156000      -0.15618000
C        0.40296000       0.02335000      -2.25932000      -0.09986000
C        1.09771000      -1.27455000      -2.32396000      -0.04527000
O       -1.88012000       1.49418000       0.00189000      -0.71364000
C       -0.67397000       1.26573000       0.12400000       0.80657000
C        0.00780000       0.00100000      -0.00747000      -0.49494000
C       -0.69585000      -1.25270000       0.12514000       0.80228000
O       -1.89068000      -1.47307000      -0.07963000      -0.70297000
C       -3.41458000      -2.01170000      -4.51579000      -0.23024000
C       -3.43544000      -2.21782000      -3.12903000       0.16178000
C       -3.05642000      -3.46325000      -2.60470000      -0.23978000
C       -2.65911000      -4.49178000      -3.45897000      -0.21329000
C       -2.64439000      -4.29211000      -4.84155000      -0.23322000
C       -3.02682000      -3.05171000      -5.35994000      -0.20249000
N       -3.68858000      -1.18093000      -2.20910000      -0.67078000
C       -4.54517000      -0.12383000      -2.29075000       0.37356000
S       -5.89907000      -0.05558000      -3.30681000      -0.34404000
N       -4.19105000       0.85966000      -1.41718000      -0.68581000
C       -5.01095000       1.97044000      -0.98055000      -0.04962000
C       -4.30377000       3.31566000      -1.26751000      -0.01490000
C       -5.12401000       4.50664000      -0.75959000      -0.41581000
C       -5.38074000       4.37175000       0.75023000      -0.38483000
C       -6.09082000       3.05020000       1.06738000      -0.39331000
C       -5.28756000       1.85865000       0.53377000      -0.39678000
N       -3.93183000       3.45039000      -2.73787000      -0.50864000
C       -5.07912000       3.46591000      -3.69869000      -0.38788000
C       -3.01227000       4.59996000      -2.99906000      -0.36390000
O       -2.37766000       1.56436000      -3.83462000      -0.54688000
C        0.44930000      -2.44818000      -2.75329000      -0.19395000
C        1.11689000      -3.66517000      -2.77093000      -0.17958000
C        2.44721000      -3.71110000      -2.35629000       0.06570000
C        3.12418000      -2.56640000      -1.93458000      -0.18043000
C        2.44271000      -1.35696000      -1.92138000      -0.17093000
H       -5.95834000       1.91736000      -1.52424000       0.24300000
H       -4.32401000       1.78908000       1.05576000       0.21652000
H       -5.81724000       0.91610000       0.70798000       0.22463000
H       -6.24038000       2.94792000       2.14853000       0.21526000
H       -7.09028000       3.05598000       0.60921000       0.20008000
H       -4.42097000       4.40997000       1.28471000       0.20054000
H       -5.97242000       5.22665000       1.09732000       0.21377000
H       -6.08900000       4.54434000      -1.28169000       0.21027000
H       -4.60487000       5.44938000      -0.96627000       0.21790000
H       -3.33513000       3.28283000      -0.75731000       0.24247000
H       -3.07629000      -1.20290000      -1.38808000       0.44843000
H       -3.31691000       0.75009000      -0.89365000       0.44993000
H       -4.66037000       3.50216000      -4.70606000       0.22409000
H       -5.69595000       4.34825000      -3.52061000       0.21018000
H       -5.65105000       2.54195000      -3.59141000       0.24731000
H       -2.54119000       4.43087000      -3.96740000       0.23137000
H       -2.23453000       4.61229000      -2.23820000       0.22619000
H       -3.57797000       5.53275000      -3.00074000       0.20884000
H        1.04569000      -0.00694000       0.30036000       0.24641000
H       -3.35980000       2.59907000      -3.00826000       0.48653000
H       -1.37548000      -0.54731000      -3.41446000       0.23831000
H        1.01280000       0.89917000      -2.06568000       0.25646000
H        2.95207000      -0.45973000      -1.58083000       0.22982000
H        4.15847000      -2.64055000      -1.62276000       0.25414000
H        0.61770000      -4.56971000      -3.09537000       0.25501000
H       -0.58919000      -2.43081000      -3.05976000       0.24005000
H       -3.06381000      -3.60321000      -1.52804000       0.23102000
H       -2.33789000      -5.09362000      -5.50759000       0.21912000
H       -3.68054000      -1.03893000      -4.91112000       0.24321000
C       -0.32622000       3.58771000       0.36390000      -0.22476000
H       -0.70800000       3.82065000      -0.63440000       0.19069000
H       -1.13175000       3.69245000       1.09813000       0.18369000
C       -0.41461000      -3.56979000       0.50920000      -0.22596000
H       -1.21519000      -3.61850000       1.25300000       0.19126000
H       -0.81525000      -3.85209000      -0.46816000       0.18618000
O        0.21345000       2.26533000       0.37683000      -0.55942000
O        0.15716000      -2.25599000       0.46049000      -0.55804000
H        0.50463000       4.24814000       0.61760000       0.19259000
H        0.40614000      -4.23327000       0.78444000       0.19475000
N        3.15312000      -4.99968000      -2.35818000       0.50018000
O        4.33489000      -5.00762000      -2.01065000      -0.39367000
O        2.52084000      -5.99907000      -2.70361000      -0.39398000
H       -3.00919000      -2.88362000      -6.43341000       0.21972000
H       -2.36810000      -5.45247000      -3.04169000       0.21917000
