91
R5TS18minorsNMe2cPh.xyz  (col5 = NBO charge)
O        0.85932000      -3.30428000       3.00096000      -0.53190000
N        0.42386000      -2.14583000       2.75807000       0.44002000
C        1.25313000      -1.13185000       2.41155000      -0.13666000
C        0.72364000       0.13584000       2.10088000      -0.08151000
C        1.57292000       1.32568000       2.02178000      -0.14749000
O       -1.86051000      -1.54597000      -0.05737000      -0.70810000
C       -0.65595000      -1.28079000      -0.09640000       0.81150000
C        0.01203000       0.00071000      -0.00878000      -0.50497000
C       -0.72019000       1.23898000      -0.15898000       0.80829000
O       -1.90097000       1.45363000       0.12735000      -0.69637000
C        2.87241000       1.31674000       1.48903000      -0.15150000
C        1.06795000       2.55702000       2.46880000      -0.15509000
C        1.81697000       3.72183000       2.40357000      -0.28532000
C        3.12542000       3.71580000       1.86521000       0.21615000
C        3.63119000       2.47404000       1.40430000      -0.27448000
O       -0.84269000      -1.89667000       2.83454000      -0.58885000
N       -2.54636000      -3.88922000       3.12179000      -0.52122000
C       -1.73197000      -5.13872000       3.00260000      -0.37757000
C       -3.63335000      -3.78269000       2.06119000      -0.00684000
C       -4.43751000      -2.46870000       2.17727000      -0.05398000
C       -5.43538000      -2.37959000       1.00395000      -0.39409000
C       -6.37328000      -3.59116000       0.95665000      -0.39426000
C       -5.57347000      -4.89755000       0.89218000      -0.38511000
C       -4.57261000      -4.99596000       2.05572000      -0.41465000
N       -3.56433000      -1.31557000       2.19156000      -0.67610000
C       -3.62373000      -0.28407000       3.07651000       0.37610000
N       -2.91359000       0.79607000       2.64644000      -0.67004000
C       -2.53146000       1.94955000       3.36625000       0.16139000
S       -4.51097000      -0.33434000       4.52545000      -0.35971000
C       -2.99800000      -3.69914000       4.53397000      -0.38806000
H       -5.00109000      -2.46119000       3.11464000       0.24583000
H       -4.86855000      -2.29784000       0.06615000       0.21045000
H       -6.00039000      -1.44877000       1.11971000       0.22585000
H       -7.04775000      -3.51460000       0.09575000       0.21456000
H       -7.00653000      -3.59653000       1.85531000       0.20081000
H       -5.02278000      -4.94296000      -0.05815000       0.20035000
H       -6.24173000      -5.76632000       0.91255000       0.21337000
H       -5.12373000      -5.03793000       3.00475000       0.21014000
H       -4.00256000      -5.92708000       1.97025000       0.21780000
H       -3.07115000      -3.74554000       1.12014000       0.22881000
H       -2.64155000       0.82072000       1.65521000       0.44913000
H       -2.94257000      -1.22015000       1.38045000       0.44820000
H       -2.11310000      -3.76884000       5.16968000       0.22337000
H       -3.70995000      -4.48263000       4.80244000       0.20837000
H       -3.44898000      -2.71140000       4.65209000       0.24583000
H       -0.76119000      -4.93733000       3.45702000       0.24806000
H       -1.58166000      -5.37338000       1.94825000       0.21403000
H       -2.24457000      -5.96535000       3.49714000       0.21120000
H        1.02100000       0.01047000      -0.39971000       0.24983000
H       -1.84897000      -3.08799000       2.94795000       0.49102000
H       -0.28391000       0.30768000       2.46125000       0.25736000
H        2.29239000      -1.41161000       2.32998000       0.22710000
H        0.06723000       2.60498000       2.88236000       0.22948000
H        1.36799000       4.63724000       2.76867000       0.22435000
H        4.61915000       2.41340000       0.96455000       0.22236000
H        3.28894000       0.39011000       1.10195000       0.21700000
C       -2.57699000       3.18218000       2.69871000      -0.23195000
C       -2.10042000       4.33457000       3.32397000      -0.21618000
C       -1.58535000       4.27252000       4.62067000      -0.23398000
C       -1.54619000       3.04310000       5.28469000      -0.20609000
C       -2.00789000       1.88338000       4.66460000      -0.21805000
H       -2.95949000       3.21684000       1.68451000       0.23611000
H       -1.21798000       5.17081000       5.10939000       0.21628000
H       -1.95858000       0.92610000       5.16857000       0.23739000
O        0.28238000      -2.26321000      -0.21586000      -0.57247000
O        0.09224000       2.23256000      -0.59953000      -0.56558000
C       -0.18858000      -3.61457000      -0.14947000      -0.04432000
C        1.03075000      -4.51598000      -0.10118000      -0.60843000
H       -0.79005000      -3.72212000       0.75681000       0.17594000
H       -0.83392000      -3.81996000      -1.01207000       0.18472000
H        0.72098000      -5.56747000      -0.07253000       0.20614000
H        1.61104000      -4.29826000       0.79952000       0.22561000
H        1.66040000      -4.36612000      -0.98419000       0.20801000
C       -0.44742000       3.56742000      -0.56532000      -0.04657000
C        0.65078000       4.49589000      -1.04992000      -0.60565000
H       -1.34025000       3.61516000      -1.19824000       0.18839000
H       -0.74877000       3.80048000       0.46130000       0.18907000
H        0.30154000       5.53472000      -1.03139000       0.20876000
H        0.94662000       4.24696000      -2.07439000       0.20839000
H        1.52886000       4.40721000      -0.40334000       0.21381000
N        3.87917000       4.87659000       1.78820000      -0.49738000
C        3.23664000       6.15495000       2.04720000      -0.36382000
H        3.97012000       6.95546000       1.93438000       0.20827000
H        2.39854000       6.35254000       1.36006000       0.18924000
H        2.85262000       6.20053000       3.07313000       0.20097000
C        5.12391000       4.87044000       1.03736000      -0.36456000
H        5.83509000       4.15335000       1.46405000       0.20041000
H        4.97746000       4.61612000      -0.02451000       0.18959000
H        5.58213000       5.85964000       1.09353000       0.20840000
H       -1.13754000       2.98088000       6.28968000       0.21895000
H       -2.13767000       5.28333000       2.79456000       0.21634000
