84
R5TS3minorsCN.xyz  (col5 = NBO charge)
O        0.25149000      -3.32854000       3.14234000      -0.52679000
N       -0.06233000      -2.13240000       2.91302000       0.54319000
C        0.90380000      -1.21999000       2.59092000      -0.16985000
C        0.55303000       0.07217000       2.19478000      -0.11170000
C        1.55816000       1.14410000       2.09777000      -0.05521000
O       -1.85428000      -1.56730000      -0.05886000      -0.71373000
C       -0.65337000      -1.28746000      -0.09848000       0.76792000
C       -0.00143000      -0.00066000      -0.00401000      -0.43652000
C       -0.71997000       1.24366000      -0.16449000       0.88837000
O       -1.89654000       1.47832000       0.13166000      -0.68012000
C        2.89209000       0.89470000       1.72778000      -0.18936000
C        1.17081000       2.46616000       2.37048000      -0.22387000
C        2.08301000       3.51133000       2.29437000      -0.04868000
C        3.41270000       3.24862000       1.92971000      -0.22194000
C        3.81154000       1.93013000       1.64338000      -0.14790000
O       -1.28596000      -1.75360000       2.96936000      -0.58431000
N       -3.11787000      -3.72961000       2.75694000      -0.51365000
C       -2.33147000      -4.99949000       2.66613000      -0.37461000
C       -4.02489000      -3.51936000       1.54907000      -0.00934000
C       -4.78475000      -2.17787000       1.62513000      -0.05453000
C       -5.58252000      -1.96991000       0.32185000      -0.39435000
C       -6.54952000      -3.12974000       0.05763000      -0.39455000
C       -5.80227000      -4.46832000       0.03294000      -0.38526000
C       -4.99741000      -4.68404000       1.32639000      -0.41567000
N       -3.86969000      -1.07843000       1.84512000      -0.67116000
C       -3.98548000      -0.12120000       2.79951000       0.36579000
N       -3.12562000       0.91719000       2.56477000      -0.70232000
C       -2.75436000       1.97131000       3.40862000       0.32132000
S       -5.08592000      -0.18368000       4.08661000      -0.33228000
C       -3.78180000      -3.62870000       4.09456000      -0.38767000
H       -5.48544000      -2.19340000       2.46455000       0.24603000
H       -4.87352000      -1.86582000      -0.51098000       0.21114000
H       -6.12004000      -1.01984000       0.40777000       0.22644000
H       -7.07868000      -2.97178000      -0.88912000       0.21646000
H       -7.31405000      -3.15378000       0.84712000       0.20165000
H       -5.11413000      -4.48773000      -0.82396000       0.20096000
H       -6.50027000      -5.30226000      -0.10288000       0.21520000
H       -5.68972000      -4.75530000       2.17575000       0.21121000
H       -4.45816000      -5.63493000       1.26544000       0.21921000
H       -3.31891000      -3.45523000       0.71291000       0.23667000
H       -2.73615000       0.98385000       1.61534000       0.44702000
H       -3.11850000      -0.98923000       1.15183000       0.45056000
H       -3.00857000      -3.76608000       4.85265000       0.22565000
H       -4.53761000      -4.41082000       4.18763000       0.21182000
H       -4.23019000      -2.64059000       4.21397000       0.24363000
H       -1.46337000      -4.89564000       3.31594000       0.24627000
H       -1.99077000      -5.13378000       1.63912000       0.21638000
H       -2.95636000      -5.84150000       2.96626000       0.21293000
H        1.02225000       0.01032000      -0.35443000       0.24452000
H       -2.39776000      -2.94605000       2.75236000       0.48756000
H       -0.45258000       0.38422000       2.45089000       0.25460000
H        1.89922000      -1.63518000       2.56346000       0.23116000
H        0.14311000       2.67748000       2.64612000       0.22813000
H        1.76621000       4.52531000       2.50782000       0.23241000
H        4.83789000       1.73163000       1.35217000       0.23597000
H        3.20631000      -0.11496000       1.48183000       0.22889000
C       -2.47730000       3.20776000       2.81176000      -0.24139000
C       -2.00165000       4.26652000       3.58613000      -0.15031000
C       -1.81151000       4.12364000       4.95796000      -0.17831000
C       -2.09709000       2.88874000       5.54494000      -0.14052000
C       -2.55236000       1.81302000       4.78775000      -0.21638000
H       -2.61761000       3.32530000       1.74295000       0.25492000
C       -1.62546000       5.54412000       2.89272000       1.07944000
H       -1.44216000       4.94754000       5.55572000       0.25292000
C       -1.94009000       2.72707000       7.03465000       1.07873000
H       -2.73710000       0.85502000       5.25325000       0.25953000
F       -0.42158000       5.41436000       2.25194000      -0.37375000
F       -1.50228000       6.58088000       3.74119000      -0.35010000
F       -2.51685000       5.88603000       1.93951000      -0.35248000
F       -3.07333000       3.06213000       7.69075000      -0.35473000
F       -0.95482000       3.51718000       7.51993000      -0.35970000
F       -1.64561000       1.45305000       7.37437000      -0.35668000
O        0.30182000      -2.25299000      -0.21077000      -0.56234000
O        0.09811000       2.21586000      -0.63305000      -0.57392000
C       -0.11858000      -3.61824000      -0.17858000      -0.23337000
H       -0.20392000      -3.94558000       0.86334000       0.18856000
H       -1.06848000      -3.75186000      -0.70310000       0.19090000
C       -0.45293000       3.53971000      -0.71190000      -0.23314000
H       -1.41259000       3.53236000      -1.23458000       0.19774000
H       -0.58367000       3.96321000       0.28699000       0.18462000
H        0.67085000      -4.18755000      -0.67278000       0.19594000
H        0.28207000       4.12567000      -1.26494000       0.19685000
C        4.36026000       4.31941000       1.83822000       0.32147000
N        5.13156000       5.18711000       1.76168000      -0.36020000
