84
R5TS18majorsCNcPh.xyz  (col5 = NBO charge)
O       -0.75925000       2.50464000      -2.68878000      -0.49796000
N       -1.30212000       1.47384000      -3.15630000       0.45748000
C       -0.77392000       0.22242000      -2.98236000      -0.15470000
C        0.40586000       0.01974000      -2.27617000      -0.09468000
C        1.10672000      -1.27311000      -2.34406000      -0.05377000
O       -1.88085000       1.49420000       0.00455000      -0.71839000
C       -0.67258000       1.26634000       0.11882000       0.80701000
C        0.00627000       0.00100000      -0.00308000      -0.49857000
C       -0.69457000      -1.25360000       0.12373000       0.80374000
O       -1.89108000      -1.47279000      -0.08010000      -0.70829000
C       -3.42705000      -2.02503000      -4.51260000      -0.22995000
C       -3.43339000      -2.22527000      -3.12472000       0.16254000
C       -3.04449000      -3.46736000      -2.59927000      -0.23972000
C       -2.65346000      -4.49825000      -3.45344000      -0.21367000
C       -2.65387000      -4.30473000      -4.83701000      -0.23424000
C       -3.04488000      -3.06738000      -5.35637000      -0.20252000
N       -3.68233000      -1.18715000      -2.20595000      -0.67116000
C       -4.54213000      -0.13234000      -2.28239000       0.37422000
S       -5.90058000      -0.06548000      -3.29307000      -0.34600000
N       -4.18731000       0.85006000      -1.40822000      -0.68621000
C       -5.00845000       1.95808000      -0.96686000      -0.04944000
C       -4.30413000       3.30511000      -1.25148000      -0.01601000
C       -5.12628000       4.49365000      -0.74132000      -0.41546000
C       -5.37986000       4.35567000       0.76880000      -0.38478000
C       -6.08599000       3.03170000       1.08511000      -0.39319000
C       -5.28124000       1.84268000       0.54781000      -0.39694000
N       -3.93263000       3.44237000      -2.72161000      -0.50873000
C       -5.08006000       3.45796000      -3.68235000      -0.38778000
C       -3.01471000       4.59349000      -2.98202000      -0.36358000
O       -2.38699000       1.55557000      -3.83291000      -0.54566000
C        0.46816000      -2.44935000      -2.77959000      -0.19220000
C        1.15068000      -3.65664000      -2.81994000      -0.15040000
C        2.49719000      -3.71813000      -2.42190000      -0.19252000
C        3.14733000      -2.54994000      -1.98652000      -0.14908000
C        2.45396000      -1.34835000      -1.95015000      -0.17202000
H       -5.95696000       1.90499000      -1.50863000       0.24271000
H       -4.31622000       1.77425000       1.06713000       0.21721000
H       -5.80864000       0.89877000       0.72158000       0.22444000
H       -6.23293000       2.92732000       2.16644000       0.21513000
H       -7.08650000       3.03592000       0.62916000       0.19981000
H       -4.41908000       4.39532000       1.30128000       0.20077000
H       -5.97316000       5.20843000       1.11848000       0.21350000
H       -6.09219000       4.53014000      -1.26186000       0.21009000
H       -4.60920000       5.43772000      -0.94746000       0.21760000
H       -3.33570000       3.27314000      -0.74110000       0.24369000
H       -3.06721000      -1.20881000      -1.38629000       0.44936000
H       -3.31121000       0.74168000      -0.88675000       0.45097000
H       -4.66127000       3.49558000      -4.68965000       0.22395000
H       -5.69741000       4.33970000      -3.50307000       0.21025000
H       -5.65153000       2.53360000      -3.57605000       0.24729000
H       -2.53764000       4.42187000      -3.94693000       0.23150000
H       -2.24147000       4.61223000      -2.21668000       0.22572000
H       -3.58348000       5.52440000      -2.99033000       0.20870000
H        1.04676000      -0.00658000       0.29566000       0.24443000
H       -3.36139000       2.59146000      -2.99356000       0.48666000
H       -1.37555000      -0.55400000      -3.42325000       0.23807000
H        1.00885000       0.89790000      -2.07276000       0.25595000
H        2.95640000      -0.45011000      -1.60154000       0.22856000
H        4.18651000      -2.59636000      -1.67761000       0.23633000
H        0.64033000      -4.55396000      -3.15469000       0.23759000
H       -0.57362000      -2.43981000      -3.07604000       0.23879000
H       -3.03956000      -3.60255000      -1.52206000       0.23163000
H       -2.35338000      -5.10844000      -5.50324000       0.21849000
H       -3.70048000      -1.05497000      -4.90930000       0.24317000
C       -0.31236000       3.60329000       0.32352000      -0.04754000
C        0.85393000       4.55264000       0.52740000      -0.60254000
H       -0.79923000       3.76056000      -0.64417000       0.19177000
H       -1.06986000       3.71007000       1.10958000       0.18183000
H        0.50264000       5.59059000       0.51844000       0.20980000
H        1.59095000       4.42853000      -0.27230000       0.21023000
H        1.34791000       4.36211000       1.48556000       0.20991000
C       -0.39523000      -3.58704000       0.48845000      -0.04588000
C        0.72717000      -4.52566000       0.88875000      -0.60383000
H       -1.22773000      -3.61048000       1.19977000       0.19069000
H       -0.79400000      -3.83099000      -0.50183000       0.18516000
H        0.35904000      -5.55663000       0.92754000       0.21383000
H        1.12145000      -4.25999000       1.87483000       0.21024000
H        1.54572000      -4.47725000       0.16490000       0.21001000
O        0.21684000       2.26922000       0.34907000      -0.57240000
O        0.15953000      -2.25649000       0.45236000      -0.57031000
C        3.19788000      -4.96715000      -2.44521000       0.32298000
N        3.76297000      -5.98430000      -2.45707000      -0.36132000
H       -2.35643000      -5.45652000      -3.03462000       0.21811000
H       -3.03903000      -2.90370000      -6.43066000       0.21953000
