91
R5TS3majorsNMe2.xyz  (col5 = NBO charge)
O       -0.73509000       2.35325000      -2.67420000      -0.54387000
N       -1.22562000       1.29229000      -3.15574000       0.43689000
C       -0.69338000       0.07193000      -2.92378000      -0.15342000
C        0.48198000      -0.09385000      -2.16336000      -0.08172000
C        1.21125000      -1.36281000      -2.21585000      -0.18768000
O       -1.87868000       1.50534000       0.01904000      -0.71436000
C       -0.67096000       1.27079000       0.10962000       0.81730000
C        0.00527000      -0.00034000      -0.01826000      -0.49131000
C       -0.70335000      -1.24988000       0.15582000       0.81495000
O       -1.88509000      -1.49076000      -0.10228000      -0.70969000
C       -3.59495000      -2.04688000      -4.38508000      -0.17378000
C       -3.53398000      -2.13339000      -2.98567000       0.18486000
C       -3.16658000      -3.34552000      -2.38629000      -0.18928000
C       -2.87920000      -4.45783000      -3.17803000      -0.15031000
C       -2.95794000      -4.38818000      -4.56701000      -0.17936000
C       -3.31748000      -3.17322000      -5.15537000      -0.14311000
N       -3.71197000      -1.02714000      -2.14839000      -0.67132000
C       -4.53470000       0.05613000      -2.30508000       0.37574000
S       -5.90068000       0.08186000      -3.30683000      -0.33757000
C       -2.44461000      -5.72646000      -2.50149000       1.07976000
C       -3.44086000      -3.09138000      -6.65391000       1.07938000
N       -4.14218000       1.08051000      -1.51106000      -0.67423000
C       -4.86520000       2.30356000      -1.23149000      -0.04812000
C       -4.03100000       3.53440000      -1.66154000      -0.01413000
C       -4.72959000       4.84876000      -1.29133000      -0.41531000
C       -5.01089000       4.90607000       0.21842000      -0.38512000
C       -5.85586000       3.70614000       0.66100000      -0.39312000
C       -5.16777000       2.39125000       0.27971000      -0.39751000
N       -3.65178000       3.47595000      -3.13354000      -0.51840000
C       -4.79396000       3.45907000      -4.09757000      -0.38749000
C       -2.66223000       4.52832000      -3.51625000      -0.36450000
O       -2.27604000       1.35319000      -3.90838000      -0.58144000
C        0.60692000      -2.57289000      -2.60250000      -0.06500000
C        1.30551000      -3.76766000      -2.60998000      -0.31760000
C        2.65955000      -3.82587000      -2.20027000       0.22532000
C        3.27656000      -2.60680000      -1.82430000      -0.27913000
C        2.56106000      -1.41954000      -1.82924000      -0.14472000
H       -5.80749000       2.27023000      -1.78496000       0.24267000
H       -4.22154000       2.28917000       0.82661000       0.21877000
H       -5.78839000       1.52889000       0.54541000       0.22390000
H       -6.02882000       3.73870000       1.74307000       0.21483000
H       -6.84365000       3.76024000       0.18095000       0.19961000
H       -4.05674000       4.90361000       0.76439000       0.20017000
H       -5.51343000       5.84979000       0.46031000       0.21319000
H       -5.68144000       4.92877000      -1.83275000       0.20968000
H       -4.11503000       5.70624000      -1.58694000       0.21829000
H       -3.06865000       3.46255000      -1.14326000       0.23982000
H       -3.08150000      -1.02041000      -1.33715000       0.45448000
H       -3.27406000       0.97333000      -0.97419000       0.44987000
H       -4.37361000       3.35705000      -5.09992000       0.22382000
H       -5.35546000       4.39242000      -4.02527000       0.20850000
H       -5.42677000       2.59291000      -3.89651000       0.24429000
H       -2.20111000       4.21730000      -4.45422000       0.22926000
H       -1.88582000       4.57892000      -2.75609000       0.22948000
H       -3.16690000       5.48843000      -3.63631000       0.20594000
H        1.03198000      -0.00636000       0.32618000       0.24940000
H       -3.12399000       2.55540000      -3.30863000       0.48920000
H       -1.24548000      -0.73254000      -3.37875000       0.22716000
H        1.07562000       0.80413000      -2.02224000       0.25246000
H        3.06038000      -0.50433000      -1.51839000       0.21651000
H        4.31571000      -2.58672000      -1.51881000       0.22322000
H        0.78410000      -4.66152000      -2.92000000       0.22810000
H       -0.43847000      -2.59741000      -2.89186000       0.20687000
H       -3.09182000      -3.40131000      -1.30622000       0.25536000
H       -2.73816000      -5.25384000      -5.17916000       0.25074000
H       -3.82693000      -1.10017000      -4.85336000       0.26559000
F       -1.14744000      -5.64658000      -2.07173000      -0.37179000
F       -3.18206000      -5.99298000      -1.40308000      -0.35314000
F       -2.51226000      -6.79860000      -3.31592000      -0.35409000
F       -2.57810000      -3.93343000      -7.27180000      -0.36177000
F       -3.19415000      -1.84673000      -7.11502000      -0.35526000
F       -4.68269000      -3.43074000      -7.06926000      -0.35634000
C       -0.30189000       3.59404000       0.29419000      -0.22447000
H       -0.67816000       3.80900000      -0.71030000       0.19115000
H       -1.10889000       3.72264000       1.02299000       0.18376000
C       -0.41797000      -3.54682000       0.65840000      -0.22777000
H       -1.31136000      -3.56486000       1.28918000       0.18943000
H       -0.66720000      -3.91610000      -0.33887000       0.19004000
O        0.22593000       2.26801000       0.33640000      -0.55853000
O        0.13246000      -2.22420000       0.58958000      -0.55096000
H        0.53419000       4.25261000       0.53618000       0.19139000
H        0.36984000      -4.16378000       1.09290000       0.19391000
N        3.34002000      -5.02552000      -2.16081000      -0.49024000
C        2.68653000      -6.24224000      -2.61611000      -0.36483000
C        4.76339000      -5.04224000      -1.87214000      -0.36429000
H        3.34723000      -7.09287000      -2.43994000       0.20846000
H        1.75443000      -6.42082000      -2.06563000       0.20235000
H        2.44440000      -6.21048000      -3.68932000       0.19277000
H        5.34207000      -4.45807000      -2.60336000       0.19322000
H        4.97352000      -4.63859000      -0.87271000       0.19752000
H        5.12478000      -6.07161000      -1.89790000       0.20941000
