92
R5TS18majorsCNcNMe2.xyz  (col5 = NBO charge)
O       -0.70927000       2.56031000      -2.66610000      -0.49705000
N       -1.26732000       1.54226000      -3.14282000       0.45764000
C       -0.76149000       0.28061000      -2.97829000      -0.15524000
C        0.41340000       0.04754000      -2.27407000      -0.09588000
C        1.09132000      -1.25635000      -2.36882000      -0.05218000
O       -1.88092000       1.49284000      -0.00278000      -0.71674000
C       -0.67452000       1.26456000       0.12711000       0.80612000
C        0.00781000       0.00127000      -0.00276000      -0.49881000
C       -0.69283000      -1.25460000       0.11494000       0.80250000
O       -1.89235000      -1.46893000      -0.07257000      -0.70550000
C       -3.25611000      -2.00115000      -4.51573000      -0.20389000
C       -3.37827000      -2.21992000      -3.13839000       0.11028000
C       -3.03750000      -3.47754000      -2.62990000      -0.20809000
C       -2.57742000      -4.49216000      -3.46525000      -0.27927000
C       -2.46174000      -4.29308000      -4.85952000       0.18659000
C       -2.81012000      -3.01503000      -5.35651000      -0.26550000
N       -3.66028000      -1.18715000      -2.21681000      -0.66394000
C       -4.51924000      -0.13997000      -2.31456000       0.37392000
S       -5.84206000      -0.06992000      -3.37371000      -0.35815000
N       -4.19246000       0.84627000      -1.42856000      -0.69187000
C       -5.04321000       1.92916000      -0.98445000      -0.04922000
C       -4.35214000       3.29177000      -1.22029000      -0.01540000
C       -5.20609000       4.45829000      -0.71233000      -0.41530000
C       -5.50083000       4.28622000       0.78690000      -0.38467000
C       -6.19372000       2.94499000       1.05744000      -0.39333000
C       -5.35609000       1.77904000       0.51929000      -0.39643000
N       -3.93924000       3.46063000      -2.67486000      -0.50786000
C       -5.05701000       3.47823000      -3.67010000      -0.38813000
C       -3.02588000       4.62468000      -2.88776000      -0.36372000
O       -2.34754000       1.64601000      -3.82422000      -0.54798000
C        0.43145000      -2.41037000      -2.83188000      -0.19202000
C        1.09407000      -3.62675000      -2.90485000      -0.15249000
C        2.44133000      -3.72103000      -2.51665000      -0.19414000
C        3.11225000      -2.57589000      -2.05261000      -0.14956000
C        2.43807000      -1.36472000      -1.98070000      -0.17189000
H       -5.97560000       1.87380000      -1.55358000       0.24240000
H       -4.40458000       1.71443000       1.06412000       0.21521000
H       -5.87299000       0.82390000       0.66011000       0.22447000
H       -6.36918000       2.81724000       2.13205000       0.21466000
H       -7.18105000       2.94265000       0.57358000       0.19983000
H       -4.55648000       4.33080000       1.34763000       0.20060000
H       -6.11797000       5.12222000       1.13593000       0.21313000
H       -6.15692000       4.49056000      -1.26014000       0.20993000
H       -4.69771000       5.41381000      -0.88533000       0.21719000
H       -3.39844000       3.26379000      -0.68202000       0.24267000
H       -3.04990000      -1.19626000      -1.39398000       0.44670000
H       -3.32747000       0.74029000      -0.88949000       0.44938000
H       -4.60736000       3.54239000      -4.66260000       0.22399000
H       -5.69377000       4.34646000      -3.49260000       0.20965000
H       -5.61546000       2.54211000      -3.59987000       0.24834000
H       -2.51088000       4.46868000      -3.83550000       0.23246000
H       -2.28216000       4.64330000      -2.09335000       0.22438000
H       -3.60447000       5.54948000      -2.90500000       0.20861000
H        1.04776000      -0.00735000       0.29803000       0.24377000
H       -3.35298000       2.62095000      -2.94676000       0.48749000
H       -1.37693000      -0.48143000      -3.42453000       0.23902000
H        1.03201000       0.91157000      -2.05726000       0.25563000
H        2.95632000      -0.48450000      -1.60996000       0.22837000
H        4.15191000      -2.64700000      -1.74994000       0.23599000
H        0.56461000      -4.50633000      -3.25626000       0.23499000
H       -0.60991000      -2.37729000      -3.12687000       0.24139000
H       -3.10469000      -3.64790000      -1.55954000       0.22903000
H       -3.48774000      -1.02176000      -4.91870000       0.24118000
C       -0.31954000       3.59923000       0.36115000      -0.04786000
C        0.84370000       4.54809000       0.58397000      -0.60253000
H       -0.79658000       3.76325000      -0.61024000       0.19278000
H       -1.08483000       3.69913000       1.14064000       0.18125000
H        0.49145000       5.58579000       0.58022000       0.20947000
H        1.58809000       4.43121000      -0.20996000       0.21016000
H        1.32907000       4.35021000       1.54510000       0.20960000
C       -0.39561000      -3.59335000       0.43476000      -0.04652000
C        0.72842000      -4.54387000       0.80120000      -0.60366000
H       -1.21803000      -3.62784000       1.15730000       0.19016000
H       -0.80996000      -3.81621000      -0.55415000       0.18667000
H        0.35712000      -5.57428000       0.82342000       0.21322000
H        1.13640000      -4.30019000       1.78744000       0.20988000
H        1.53779000      -4.48311000       0.06806000       0.20974000
O        0.21084000       2.26567000       0.38165000      -0.57288000
O        0.16405000      -2.26447000       0.41695000      -0.57133000
C        3.11837000      -4.98136000      -2.58303000       0.32380000
N        3.65957000      -6.01029000      -2.63501000      -0.36360000
H       -2.72132000      -2.79517000      -6.41325000       0.22308000
H       -2.31554000      -5.44382000      -3.01884000       0.22156000
N       -2.02726000      -5.31031000      -5.70906000      -0.51054000
C       -1.62562000      -4.96216000      -7.06240000      -0.36384000
C       -1.44087000      -6.50395000      -5.12590000      -0.36196000
H       -0.80257000      -4.22886000      -7.08956000       0.18513000
H       -1.29922000      -5.86495000      -7.58278000       0.20658000
H       -2.46928000      -4.54682000      -7.62529000       0.19997000
H       -0.52999000      -6.29751000      -4.53699000       0.17900000
H       -2.15840000      -7.01092000      -4.47112000       0.20088000
H       -1.17758000      -7.20187000      -5.92331000       0.20853000
