81
R5TS3minorsOMecPh.xyz  (col5 = NBO charge)
O        0.54799000      -3.36493000       2.98303000      -0.53293000
N        0.19656000      -2.16782000       2.79067000       0.43928000
C        1.10285000      -1.22464000       2.42994000      -0.14289000
C        0.67543000       0.07445000       2.09517000      -0.09188000
C        1.62672000       1.19412000       2.02362000      -0.12278000
O       -1.85681000      -1.55810000      -0.03888000      -0.70223000
C       -0.65830000      -1.28361000      -0.12220000       0.81307000
C        0.00833000      -0.00094000      -0.00195000      -0.49986000
C       -0.71636000       1.24487000      -0.14406000       0.80711000
O       -1.90245000       1.46434000       0.11292000      -0.69377000
C        2.92543000       1.05998000       1.51473000      -0.15821000
C        1.21877000       2.46431000       2.47085000      -0.16771000
C        2.07673000       3.55158000       2.42180000      -0.25334000
C        3.37289000       3.40245000       1.90713000       0.34297000
C        3.79690000       2.14518000       1.45138000      -0.29845000
O       -1.03742000      -1.81880000       2.93239000      -0.58339000
N       -2.87013000      -3.73596000       2.84420000      -0.51782000
C       -2.10798000      -5.00539000       2.63680000      -0.37788000
C       -3.91951000      -3.50098000       1.76814000      -0.00636000
C       -4.64716000      -2.15189000       1.95367000      -0.05398000
C       -5.61072000      -1.92640000       0.77033000      -0.39343000
C       -6.61592000      -3.07460000       0.62445000      -0.39448000
C       -5.89093000      -4.41864000       0.48716000      -0.38536000
C       -4.92597000      -4.65396000       1.66138000      -0.41495000
N       -3.70254000      -1.06229000       2.05794000      -0.67655000
C       -3.69672000      -0.09627000       3.01642000       0.37578000
N       -2.91138000       0.95667000       2.65866000      -0.67086000
C       -2.42153000       2.01408000       3.45349000       0.16019000
S       -4.59284000      -0.17972000       4.45574000      -0.35408000
C       -3.35242000      -3.64588000       4.25693000      -0.38878000
H       -5.22977000      -2.16728000       2.87929000       0.24532000
H       -5.01870000      -1.81946000      -0.14929000       0.20912000
H       -6.12257000      -0.97254000       0.93533000       0.22564000
H       -7.26542000      -2.90171000      -0.24164000       0.21463000
H       -7.26833000      -3.10197000       1.50888000       0.20090000
H       -5.32108000      -4.43248000      -0.45279000       0.20030000
H       -6.60841000      -5.24576000       0.43450000       0.21339000
H       -5.50222000      -4.72743000       2.59334000       0.21023000
H       -4.40856000      -5.60921000       1.52345000       0.21782000
H       -3.32718000      -3.43529000       0.84763000       0.23419000
H       -2.63992000       1.01644000       1.67026000       0.44580000
H       -3.04030000      -0.97577000       1.28027000       0.44787000
H       -2.48489000      -3.79125000       4.90329000       0.22495000
H       -4.09297000      -4.42623000       4.44414000       0.20825000
H       -3.77399000      -2.65549000       4.44255000       0.24572000
H       -1.15652000      -4.90142000       3.15887000       0.24863000
H       -1.91515000      -5.13373000       1.57102000       0.21466000
H       -2.68389000      -5.85081000       3.01626000       0.21048000
H        1.01559000       0.01224000      -0.39727000       0.25195000
H       -2.13978000      -2.95455000       2.76815000       0.49072000
H       -0.31536000       0.32946000       2.45284000       0.25857000
H        2.11081000      -1.59553000       2.32401000       0.22723000
H        0.22015000       2.59550000       2.87184000       0.23192000
H        1.76334000       4.52785000       2.77744000       0.23113000
H        4.79107000       2.00462000       1.04355000       0.22750000
H        3.26000000       0.09707000       1.13774000       0.21955000
C       -2.38717000       3.29555000       2.88545000      -0.23636000
C       -1.80463000       4.35456000       3.58263000      -0.21450000
C       -1.26088000       4.14664000       4.85210000      -0.23174000
C       -1.30046000       2.86797000       5.41614000      -0.20401000
C       -1.86945000       1.80086000       4.72343000      -0.21784000
H       -2.80445000       3.44157000       1.89412000       0.23158000
H       -0.80840000       4.97089000       5.39629000       0.21796000
H       -1.88098000       0.80263000       5.14403000       0.23823000
O        0.28676000      -2.24597000      -0.32024000      -0.56022000
O        0.11388000       2.24166000      -0.54285000      -0.55128000
C       -0.12652000      -3.61306000      -0.28101000      -0.23384000
H       -0.08960000      -3.96611000       0.75522000       0.19281000
H       -1.13056000      -3.73437000      -0.69637000       0.19012000
C       -0.43794000       3.56392000      -0.51018000      -0.22557000
H       -1.31465000       3.63853000      -1.15990000       0.18992000
H       -0.72247000       3.83295000       0.51113000       0.18879000
H        0.59990000      -4.16697000      -0.87926000       0.19354000
H        0.35973000       4.21938000      -0.86208000       0.19388000
O        4.13685000       4.53141000       1.89075000      -0.54726000
C        5.45938000       4.44410000       1.38176000      -0.22072000
H        5.46736000       4.13481000       0.32770000       0.17827000
H        5.87925000       5.44821000       1.46577000       0.19888000
H        6.07228000       3.74487000       1.96665000       0.17875000
H       -0.86920000       2.69429000       6.39828000       0.21960000
H       -1.78075000       5.34360000       3.13238000       0.21810000
