89
R5TS18minorsOMecNO2.xyz  (col5 = NBO charge)
O        0.77937000      -3.32619000       2.99656000      -0.51584000
N        0.36565000      -2.15774000       2.77774000       0.44525000
C        1.22033000      -1.15569000       2.43921000      -0.13800000
C        0.71894000       0.11775000       2.13461000      -0.07829000
C        1.58370000       1.29861000       2.04896000      -0.12901000
O       -1.85957000      -1.55326000      -0.05611000      -0.71258000
C       -0.65504000      -1.28137000      -0.09609000       0.80900000
C        0.00696000      -0.00000000      -0.01348000      -0.50920000
C       -0.71654000       1.24207000      -0.15248000       0.80718000
O       -1.90140000       1.45913000       0.12398000      -0.70552000
C        2.87478000       1.27372000       1.50455000      -0.15123000
C        1.08900000       2.52906000       2.51993000      -0.16543000
C        1.84674000       3.68675000       2.46074000      -0.25740000
C        3.13421000       3.64635000       1.90187000       0.34685000
C        3.64822000       2.42945000       1.42558000      -0.29821000
O       -0.89209000      -1.88362000       2.86920000      -0.57955000
N       -2.62119000      -3.88568000       3.07487000      -0.51865000
C       -1.80916000      -5.13972000       2.97955000      -0.37592000
C       -3.66229000      -3.76564000       1.96879000      -0.00815000
C       -4.47409000      -2.45534000       2.06847000      -0.05320000
C       -5.42100000      -2.35017000       0.85476000      -0.39434000
C       -6.35376000      -3.56200000       0.75103000      -0.39427000
C       -5.54898000      -4.86577000       0.70226000      -0.38521000
C       -4.59875000      -4.97951000       1.90623000      -0.41491000
N       -3.60456000      -1.29811000       2.12865000      -0.66824000
C       -3.70449000      -0.27750000       3.01563000       0.36930000
N       -2.99904000       0.82289000       2.60101000      -0.67017000
C       -2.58197000       1.93832000       3.33627000       0.21017000
S       -4.63212000      -0.33241000       4.43326000      -0.33453000
C       -3.13325000      -3.70858000       4.46853000      -0.38721000
H       -5.07560000      -2.46051000       2.98167000       0.24550000
H       -4.81387000      -2.25500000      -0.05592000       0.21250000
H       -5.99219000      -1.42171000       0.95882000       0.22607000
H       -6.99021000      -3.47336000      -0.13696000       0.21601000
H       -7.02528000      -3.58078000       1.62118000       0.20113000
H       -4.95814000      -4.89710000      -0.22411000       0.20104000
H       -6.21548000      -5.73566000       0.68225000       0.21459000
H       -5.18986000      -5.03656000       2.83009000       0.21068000
H       -4.02388000      -5.90825000       1.83094000       0.21897000
H       -3.06014000      -3.71335000       1.05391000       0.23184000
H       -2.71937000       0.85969000       1.60995000       0.45402000
H       -2.95466000      -1.19508000       1.33874000       0.45121000
H       -2.27907000      -3.79491000       5.14287000       0.22412000
H       -3.86354000      -4.48830000       4.69438000       0.21051000
H       -3.58090000      -2.71903000       4.57917000       0.24387000
H       -0.86152000      -4.95323000       3.48519000       0.24673000
H       -1.60691000      -5.36094000       1.93122000       0.21520000
H       -2.35222000      -5.96817000       3.43664000       0.21255000
H        1.02206000       0.01043000      -0.38715000       0.24959000
H       -1.91779000      -3.08797000       2.93557000       0.48937000
H       -0.29267000       0.30480000       2.47482000       0.25497000
H        2.25235000      -1.45973000       2.35324000       0.23016000
H        0.09549000       2.56773000       2.94749000       0.22329000
H        1.46160000       4.63113000       2.83420000       0.23486000
H        4.63732000       2.37685000       0.98612000       0.22895000
H        3.27610000       0.34431000       1.10897000       0.22063000
C       -2.50112000       3.16713000       2.65265000      -0.23084000
C       -1.93589000       4.27727000       3.26282000      -0.18367000
C       -1.47226000       4.16550000       4.57450000       0.03050000
C       -1.58790000       2.96999000       5.28732000      -0.17410000
C       -2.13469000       1.85472000       4.66710000      -0.21982000
H       -2.84445000       3.22026000       1.62653000       0.24809000
H       -2.19190000       0.91018000       5.19145000       0.24858000
O        0.28669000      -2.26097000      -0.20711000      -0.57164000
O        0.10591000       2.23408000      -0.57213000      -0.56481000
C       -0.17729000      -3.61545000      -0.14953000      -0.04426000
C        1.04686000      -4.51066000      -0.11564000      -0.60759000
H       -0.77222000      -3.73518000       0.75980000       0.17462000
H       -0.82620000      -3.81641000      -1.01029000       0.18612000
H        0.74287000      -5.56382000      -0.09385000       0.20744000
H        1.63165000      -4.29798000       0.78338000       0.22376000
H        1.67084000      -4.34999000      -1.00060000       0.20916000
C       -0.42416000       3.57438000      -0.55223000      -0.04531000
C        0.68045000       4.49427000      -1.03700000      -0.60428000
H       -1.31367000       3.62084000      -1.18966000       0.18914000
H       -0.72704000       3.81776000       0.47118000       0.18532000
H        0.32748000       5.53138000      -1.04579000       0.21283000
H        0.99261000       4.22374000      -2.05102000       0.20806000
H        1.54824000       4.42846000      -0.37429000       0.21373000
O        3.79476000       4.83475000       1.85728000      -0.54270000
C        5.10066000       4.86596000       1.29886000      -0.22117000
H        5.09579000       4.55567000       0.24523000       0.17852000
H        5.42932000       5.90428000       1.36816000       0.20077000
H        5.79495000       4.22702000       1.86087000       0.17945000
N       -0.80305000       5.30685000       5.19356000       0.50142000
O       -0.57058000       5.25711000       6.40257000      -0.39629000
O       -0.49242000       6.25491000       4.46391000      -0.40597000
H       -1.83752000       5.21978000       2.73847000       0.25145000
H       -1.21189000       2.91771000       6.30166000       0.25242000
