95
R5TS18minorsOMecNMe2.xyz  (col5 = NBO charge)
O        0.80101000      -3.34549000       3.01039000      -0.51663000
N        0.38186000      -2.17927000       2.78678000       0.44861000
C        1.23966000      -1.17702000       2.44819000      -0.14000000
C        0.74878000       0.09907000       2.14974000      -0.07998000
C        1.63278000       1.26431000       2.04741000      -0.12135000
O       -1.86070000      -1.54739000      -0.05511000      -0.71173000
C       -0.65641000      -1.27880000      -0.09411000       0.80475000
C        0.00988000      -0.00018000      -0.01927000      -0.51615000
C       -0.71578000       1.24176000      -0.14532000       0.80089000
O       -1.90257000       1.45116000       0.11963000      -0.69663000
C        2.93773000       1.19550000       1.53968000      -0.14585000
C        1.15181000       2.51836000       2.46877000      -0.16429000
C        1.94802000       3.65006000       2.40464000      -0.26556000
C        3.25017000       3.56628000       1.88977000       0.34408000
C        3.74523000       2.32765000       1.45502000      -0.30280000
O       -0.87243000      -1.90710000       2.87313000      -0.56744000
N       -2.61450000      -3.91071000       3.09722000      -0.51965000
C       -1.80166000      -5.15996000       2.96077000      -0.37774000
C       -3.70581000      -3.79389000       2.04081000      -0.00384000
C       -4.49383000      -2.47097000       2.16446000      -0.05432000
C       -5.50123000      -2.37037000       1.00048000      -0.39400000
C       -6.45016000      -3.57363000       0.95753000      -0.39446000
C       -5.66226000      -4.88674000       0.88123000      -0.38522000
C       -4.65396000      -4.99971000       2.03716000      -0.41526000
N       -3.60270000      -1.33356000       2.17170000      -0.68208000
C       -3.62502000      -0.30532000       3.06679000       0.37667000
N       -2.91083000       0.76211000       2.62973000      -0.66253000
C       -2.46501000       1.88823000       3.36211000       0.11053000
S       -4.46861000      -0.35638000       4.54323000      -0.36938000
C       -3.06269000      -3.73801000       4.51403000      -0.39018000
H       -5.04821000      -2.45617000       3.10748000       0.24556000
H       -4.94238000      -2.29155000       0.05749000       0.20952000
H       -6.05637000      -1.43453000       1.12290000       0.22626000
H       -7.13167000      -3.48858000       0.10300000       0.21452000
H       -7.07540000      -3.57693000       1.86181000       0.20085000
H       -5.11896000      -4.93261000      -0.07333000       0.20038000
H       -6.33783000      -5.74981000       0.90258000       0.21328000
H       -5.19925000      -5.04113000       2.98946000       0.21039000
H       -4.09249000      -5.93538000       1.94342000       0.21766000
H       -3.14607000      -3.75975000       1.09787000       0.22912000
H       -2.64046000       0.78301000       1.63843000       0.44715000
H       -2.99119000      -1.24023000       1.35302000       0.44685000
H       -2.17615000      -3.81847000       5.14609000       0.22312000
H       -3.77530000      -4.52411000       4.77211000       0.20866000
H       -3.50986000      -2.74946000       4.64504000       0.24817000
H       -0.83105000      -4.96774000       3.41901000       0.24752000
H       -1.65263000      -5.38071000       1.90326000       0.21433000
H       -2.31705000      -5.99113000       3.44431000       0.21217000
H        1.02686000       0.01002000      -0.38752000       0.24707000
H       -1.92532000      -3.10952000       2.93372000       0.49125000
H       -0.26086000       0.30134000       2.48581000       0.26034000
H        2.26962000      -1.48813000       2.36347000       0.22819000
H        0.14412000       2.60088000       2.85611000       0.23632000
H        1.57733000       4.61502000       2.73579000       0.22775000
H        4.74433000       2.23795000       1.04497000       0.22796000
H        3.32676000       0.24736000       1.17827000       0.21913000
C       -2.52114000       3.14503000       2.75345000      -0.20179000
C       -1.95554000       4.26372000       3.36058000      -0.28071000
C       -1.32382000       4.17050000       4.61988000       0.18637000
C       -1.28819000       2.89412000       5.22761000      -0.26610000
C       -1.84148000       1.77863000       4.60978000      -0.19237000
H       -2.97382000       3.23478000       1.77170000       0.23328000
H       -1.77544000       0.80720000       5.08558000       0.23482000
O        0.28304000      -2.26608000      -0.19925000      -0.57559000
O        0.10760000       2.24782000      -0.54204000      -0.56986000
C       -0.19568000      -3.61431000      -0.14395000      -0.04403000
C        1.01805000      -4.52367000      -0.09961000      -0.60777000
H       -0.80205000      -3.72746000       0.75891000       0.17432000
H       -0.83951000      -3.81043000      -1.00988000       0.18492000
H        0.70234000      -5.57354000      -0.07813000       0.20615000
H        1.59944000      -4.31593000       0.80274000       0.22348000
H        1.64984000      -4.37163000      -0.98072000       0.20817000
C       -0.44403000       3.57806000      -0.50425000      -0.04720000
C        0.65012000       4.52345000      -0.96465000      -0.60413000
H       -1.32747000       3.62259000      -1.15041000       0.18813000
H       -0.76587000       3.79945000       0.51895000       0.18858000
H        0.28159000       5.55555000      -0.95954000       0.20966000
H        0.97387000       4.27542000      -1.98093000       0.20733000
H        1.51531000       4.45864000      -0.29821000       0.21276000
O        3.94386000       4.73922000       1.84381000      -0.54561000
C        5.25858000       4.72507000       1.30707000      -0.22056000
H        5.26317000       4.39240000       0.26031000       0.17931000
H        5.61431000       5.75571000       1.35962000       0.19888000
H        5.92755000       4.08039000       1.89309000       0.17877000
H       -2.00544000       5.20936000       2.83489000       0.22103000
H       -0.80307000       2.75627000       6.18601000       0.22240000
N       -0.75049000       5.28628000       5.23783000      -0.51498000
C        0.23748000       5.05515000       6.28163000      -0.36436000
C       -0.59561000       6.49958000       4.45445000      -0.36324000
H        1.08477000       4.43935000       5.93674000       0.18713000
H        0.62505000       6.01622000       6.62680000       0.20484000
H       -0.21594000       4.55811000       7.14612000       0.19952000
H        0.04399000       6.36441000       3.56404000       0.17872000
H       -1.57008000       6.86843000       4.11647000       0.20135000
H       -0.15172000       7.27676000       5.08056000       0.20643000
