93
R5TS18majorsOMe.xyz  (col5 = NBO charge)
O       -0.85064000       2.29570000      -2.74266000      -0.52683000
N       -1.34585000       1.21639000      -3.16840000       0.44728000
C       -0.76105000       0.00886000      -2.94042000      -0.15627000
C        0.43941000      -0.08767000      -2.22704000      -0.07509000
C        1.24833000      -1.30992000      -2.25719000      -0.12984000
O       -1.88004000       1.50486000       0.02384000      -0.72107000
C       -0.66961000       1.27046000       0.09702000       0.81313000
C        0.00203000      -0.00039000      -0.00362000      -0.49952000
C       -0.69892000      -1.25292000       0.14617000       0.81132000
O       -1.88627000      -1.48687000      -0.09947000      -0.71681000
C       -3.79903000      -2.01271000      -4.32846000      -0.17426000
C       -3.64355000      -2.12117000      -2.93788000       0.18524000
C       -3.18382000      -3.32590000      -2.38994000      -0.19319000
C       -2.89158000      -4.40644000      -3.22213000      -0.14881000
C       -3.06348000      -4.31670000      -4.60125000      -0.18044000
C       -3.52068000      -3.11083000      -5.13819000      -0.14239000
N       -3.81056000      -1.04335000      -2.06251000      -0.66961000
C       -4.64390000       0.03739000      -2.16369000       0.37515000
S       -6.05944000       0.07117000      -3.09436000      -0.33590000
C       -2.33538000      -5.65451000      -2.59905000       1.08021000
C       -3.74793000      -3.00654000      -6.62317000       1.07937000
N       -4.21481000       1.05455000      -1.37855000      -0.67480000
C       -4.91381000       2.28574000      -1.07609000      -0.04872000
C       -4.08960000       3.50393000      -1.55828000      -0.01500000
C       -4.76116000       4.82874000      -1.17807000      -0.41569000
C       -4.97028000       4.90809000       0.34270000      -0.38491000
C       -5.80120000       3.72039000       0.84181000      -0.39304000
C       -5.14236000       2.39455000       0.44640000      -0.39769000
N       -3.77165000       3.42123000      -3.04592000      -0.51681000
C       -4.95438000       3.40529000      -3.96170000      -0.38795000
C       -2.79134000       4.46253000      -3.48292000      -0.36344000
O       -2.43594000       1.23525000      -3.85117000      -0.56028000
C        0.71986000      -2.57403000      -2.59236000      -0.17129000
C        1.51938000      -3.70402000      -2.59786000      -0.25134000
C        2.87828000      -3.61153000      -2.25574000       0.34745000
C        3.42470000      -2.36652000      -1.91576000      -0.30150000
C        2.60704000      -1.23935000      -1.91766000      -0.14362000
H       -5.88165000       2.25571000      -1.58391000       0.24307000
H       -4.17176000       2.29130000       0.94840000       0.21964000
H       -5.75664000       1.54124000       0.75270000       0.22440000
H       -5.92124000       3.76917000       1.93035000       0.21528000
H       -6.81067000       3.77584000       0.40944000       0.19970000
H       -3.99115000       4.90627000       0.84244000       0.20045000
H       -5.45469000       5.85853000       0.59483000       0.21354000
H       -5.73680000       4.90795000      -1.67539000       0.21018000
H       -4.15515000       5.67755000      -1.51378000       0.21835000
H       -3.10707000       3.43092000      -1.08024000       0.24141000
H       -3.14088000      -1.04132000      -1.28301000       0.45498000
H       -3.32291000       0.94402000      -0.88216000       0.45146000
H       -4.57783000       3.28912000      -4.97977000       0.22408000
H       -5.50149000       4.34554000      -3.87415000       0.20968000
H       -5.58657000       2.54806000      -3.72349000       0.24532000
H       -2.36292000       4.13304000      -4.42986000       0.22962000
H       -1.99072000       4.52899000      -2.74976000       0.22876000
H       -3.29994000       5.42019000      -3.60414000       0.20743000
H        1.03994000      -0.00473000       0.30352000       0.24689000
H       -3.26751000       2.49801000      -3.22304000       0.48934000
H       -1.31082000      -0.82397000      -3.34625000       0.23083000
H        0.97648000       0.84416000      -2.08510000       0.25428000
H        3.03410000      -0.27802000      -1.64201000       0.22008000
H        4.46974000      -2.26649000      -1.64734000       0.22948000
H        1.10911000      -4.67624000      -2.84289000       0.23861000
H       -0.33288000      -2.68556000      -2.83125000       0.22263000
H       -3.04174000      -3.39949000      -1.31772000       0.25555000
H       -2.83827000      -5.15815000      -5.24433000       0.25148000
H       -4.10520000      -1.07158000      -4.76280000       0.26485000
F       -1.02837000      -5.48501000      -2.23562000      -0.36991000
F       -2.99308000      -5.99280000      -1.46929000      -0.35391000
F       -2.37166000      -6.71283000      -3.43213000      -0.35292000
F       -2.89696000      -3.80047000      -7.31560000      -0.36129000
F       -3.58209000      -1.74387000      -7.07313000      -0.35627000
F       -5.00108000      -3.38716000      -6.96173000      -0.35639000
C       -0.28787000       3.61160000       0.19362000      -0.04724000
C        0.88472000       4.55970000       0.36704000      -0.60239000
H       -0.77241000       3.74050000      -0.77990000       0.18998000
H       -1.04590000       3.75215000       0.97372000       0.18277000
H        0.54127000       5.59929000       0.31930000       0.20936000
H        1.62448000       4.40129000      -0.42409000       0.20982000
H        1.37359000       4.40021000       1.33349000       0.20988000
C       -0.38648000      -3.57964000       0.55471000      -0.04787000
C        0.74965000      -4.50500000       0.94560000      -0.60348000
H       -1.21987000      -3.62268000       1.26444000       0.18831000
H       -0.77087000      -3.83023000      -0.43653000       0.18807000
H        0.39243000      -5.54031000       0.96801000       0.21429000
H        1.14199000      -4.24768000       1.93494000       0.20700000
H        1.56292000      -4.43541000       0.21712000       0.21259000
O        0.23222000       2.27654000       0.26453000      -0.57337000
O        0.14667000      -2.23895000       0.53218000      -0.56580000
O        3.56867000      -4.78418000      -2.27288000      -0.54339000
C        4.94259000      -4.76572000      -1.91155000      -0.22127000
H        5.08308000      -4.40937000      -0.88223000       0.17948000
H        5.28459000      -5.79941000      -1.98604000       0.20033000
H        5.53083000      -4.13849000      -2.59477000       0.17919000
