93
R5TS18minorsNMe2cNO2.xyz  (col5 = NBO charge)
O        0.86446000      -3.30776000       2.97280000      -0.53351000
N        0.42666000      -2.14884000       2.73706000       0.43567000
C        1.24628000      -1.12835000       2.39667000      -0.13302000
C        0.69535000       0.13466000       2.09004000      -0.08427000
C        1.49578000       1.35835000       2.07094000      -0.15171000
O       -1.86098000      -1.54439000      -0.05520000      -0.70884000
C       -0.65541000      -1.28135000      -0.10066000       0.81500000
C        0.01309000       0.00069000      -0.00506000      -0.49870000
C       -0.72036000       1.23820000      -0.16067000       0.81327000
O       -1.90193000       1.45342000       0.12741000      -0.70312000
C        2.82385000       1.44363000       1.62157000      -0.14884000
C        0.89302000       2.54595000       2.51382000      -0.15398000
C        1.55937000       3.75814000       2.53049000      -0.29246000
C        2.90172000       3.84455000       2.08879000       0.22247000
C        3.51137000       2.64903000       1.62349000      -0.27574000
O       -0.84598000      -1.90661000       2.81771000      -0.60064000
N       -2.52924000      -3.89495000       3.11468000      -0.52076000
C       -1.70741000      -5.14265000       3.03263000      -0.37651000
C       -3.58424000      -3.80208000       2.02125000      -0.00847000
C       -4.42233000      -2.50864000       2.11924000      -0.05324000
C       -5.38325000      -2.43118000       0.91432000      -0.39449000
C       -6.29433000      -3.66076000       0.82998000      -0.39414000
C       -5.46552000      -4.94937000       0.78498000      -0.38535000
C       -4.50011000      -5.03321000       1.97902000      -0.41418000
N       -3.58174000      -1.32815000       2.16518000      -0.66639000
C       -3.73643000      -0.28731000       3.02003000       0.36779000
N       -3.07935000       0.83475000       2.58023000      -0.66861000
C       -2.70263000       1.98193000       3.28714000       0.21283000
S       -4.67377000      -0.34385000       4.43091000      -0.33475000
C       -3.02398000      -3.69193000       4.50959000      -0.38540000
H       -5.01570000      -2.52197000       3.03758000       0.24541000
H       -4.78700000      -2.33185000      -0.00306000       0.21231000
H       -5.97101000      -1.51292000       1.01735000       0.22560000
H       -6.94087000      -3.59178000      -0.05252000       0.21553000
H       -6.95692000      -3.68413000       1.70686000       0.20113000
H       -4.88416000      -4.97833000      -0.14747000       0.20078000
H       -6.11552000      -5.83194000       0.78027000       0.21424000
H       -5.07891000      -5.09279000       2.91059000       0.21022000
H       -3.90897000      -5.95169000       1.90570000       0.21892000
H       -2.99545000      -3.74702000       1.09804000       0.23072000
H       -2.77393000       0.84927000       1.59637000       0.45434000
H       -2.93301000      -1.21950000       1.37507000       0.45119000
H       -2.16096000      -3.75966000       5.17483000       0.22409000
H       -3.74807000      -4.46943000       4.76290000       0.20944000
H       -3.47599000      -2.70329000       4.60630000       0.24222000
H       -0.75423000      -4.93605000       3.52026000       0.24744000
H       -1.51570000      -5.38099000       1.98591000       0.21452000
H       -2.23477000      -5.96889000       3.51212000       0.21124000
H        1.02091000       0.01225000      -0.39957000       0.25206000
H       -1.82394000      -3.09295000       2.94840000       0.48943000
H       -0.32174000       0.26763000       2.44043000       0.25339000
H        2.28952000      -1.39371000       2.31741000       0.22811000
H       -0.13068000       2.51106000       2.85930000       0.21839000
H        1.02956000       4.63473000       2.88263000       0.22734000
H        4.52886000       2.66347000       1.25217000       0.22303000
H        3.32387000       0.55665000       1.24007000       0.21736000
C       -2.63117000       3.18772000       2.56042000      -0.22973000
C       -2.05789000       4.31762000       3.12350000      -0.18296000
C       -1.58611000       4.25464000       4.43594000       0.02955000
C       -1.72101000       3.09315000       5.20080000      -0.17091000
C       -2.27222000       1.95582000       4.62659000      -0.21997000
H       -2.96915000       3.20132000       1.53148000       0.24839000
H       -2.33199000       1.03415000       5.18962000       0.24959000
O        0.28020000      -2.26105000      -0.23366000      -0.56964000
O        0.09141000       2.22653000      -0.60530000      -0.56222000
C       -0.18402000      -3.61562000      -0.16659000      -0.04444000
C        1.04034000      -4.51069000      -0.13786000      -0.60832000
H       -0.77077000      -3.72930000       0.74848000       0.17592000
H       -0.83993000      -3.81974000      -1.02133000       0.18549000
H        0.73605000      -5.56371000      -0.10981000       0.20685000
H        1.63030000      -4.29371000       0.75672000       0.22588000
H        1.65816000      -4.35389000      -1.02787000       0.20875000
C       -0.43722000       3.56681000      -0.58259000      -0.04582000
C        0.68160000       4.48640000      -1.03457000      -0.60557000
H       -1.31331000       3.62201000      -1.23807000       0.18819000
H       -0.75865000       3.80125000       0.43677000       0.18766000
H        0.34089000       5.52788000      -1.02108000       0.21073000
H        1.00338000       4.23815000      -2.05124000       0.20881000
H        1.53965000       4.38846000      -0.36304000       0.21537000
N        3.58123000       5.04717000       2.11137000      -0.49226000
C        2.84605000       6.27466000       2.38953000      -0.36602000
H        3.54484000       7.11295000       2.40710000       0.20828000
H        2.07353000       6.48003000       1.63231000       0.19005000
H        2.35254000       6.23052000       3.36613000       0.20917000
C        4.88143000       5.14816000       1.47008000      -0.36475000
H        5.59858000       4.45486000       1.92559000       0.20050000
H        4.83805000       4.93474000       0.39016000       0.18936000
H        5.27019000       6.15913000       1.60428000       0.20969000
H       -1.95160000       5.23546000       2.55847000       0.24991000
H       -1.34313000       3.07852000       6.21579000       0.25198000
N       -0.86829000       5.39533000       4.99093000       0.50136000
O       -0.66705000       5.42469000       6.20532000      -0.39149000
O       -0.47573000       6.26736000       4.20210000      -0.41575000
