81
R5TS3majorsNO2cNO2.xyz  (col5 = NBO charge)
O       -0.77088000       2.48726000      -2.68557000      -0.49750000
N       -1.30941000       1.44999000      -3.14358000       0.45722000
C       -0.77188000       0.20429000      -2.96911000      -0.15389000
C        0.41390000       0.00904000      -2.26974000      -0.09368000
C        1.12456000      -1.28042000      -2.33689000      -0.05239000
O       -1.87953000       1.50155000       0.00196000      -0.71796000
C       -0.67317000       1.26697000       0.12218000       0.80721000
C        0.00452000       0.00131000      -0.00302000      -0.49724000
C       -0.69421000      -1.25495000       0.12017000       0.80360000
O       -1.89042000      -1.47974000      -0.07738000      -0.70926000
C       -3.50427000      -1.94586000      -4.39092000      -0.23183000
C       -3.48192000      -2.10661000      -2.99317000       0.21221000
C       -2.99690000      -3.30807000      -2.43813000      -0.23320000
C       -2.49214000      -4.30871000      -3.25325000      -0.18482000
C       -2.48884000      -4.11609000      -4.63599000       0.02734000
C       -3.01103000      -2.95439000      -5.20927000      -0.17223000
N       -3.78200000      -1.08215000      -2.09384000      -0.66880000
C       -4.60220000       0.01089000      -2.22888000       0.36794000
S       -5.94699000       0.07513000      -3.24909000      -0.31821000
N       -4.21611000       1.00490000      -1.39043000      -0.67595000
C       -4.98514000       2.17003000      -1.00088000      -0.04890000
C       -4.21660000       3.46899000      -1.33955000      -0.01412000
C       -4.97337000       4.71469000      -0.86391000      -0.41591000
C       -5.22885000       4.64262000       0.65020000      -0.38504000
C       -6.00280000       3.36991000       1.01255000      -0.39353000
C       -5.26011000       2.12409000       0.51754000      -0.39636000
N       -3.85309000       3.54084000      -2.81692000      -0.51002000
C       -5.00767000       3.56366000      -3.76881000      -0.38687000
C       -2.89981000       4.65170000      -3.12400000      -0.36411000
O       -2.40231000       1.52038000      -3.81099000      -0.54536000
C        0.52323000      -2.44219000      -2.85695000      -0.19071000
C        1.20089000      -3.65514000      -2.87961000      -0.18475000
C        2.49950000      -3.70271000      -2.37406000       0.07086000
C        3.13483000      -2.56874000      -1.86744000      -0.18153000
C        2.44227000      -1.36592000      -1.85347000      -0.16527000
H       -5.93559000       2.13933000      -1.54053000       0.24294000
H       -4.29827000       2.02670000       1.03827000       0.21707000
H       -5.83279000       1.21418000       0.72583000       0.22502000
H       -6.15293000       3.30988000       2.09661000       0.21650000
H       -7.00243000       3.40959000       0.55661000       0.20060000
H       -4.26596000       4.65028000       1.18033000       0.20067000
H       -5.77510000       5.53720000       0.97019000       0.21492000
H       -5.93782000       4.78514000      -1.38357000       0.21095000
H       -4.40807000       5.62238000      -1.10252000       0.21921000
H       -3.24545000       3.40537000      -0.83657000       0.24126000
H       -3.18662000      -1.10073000      -1.25782000       0.45343000
H       -3.33495000       0.89027000      -0.87696000       0.45156000
H       -4.59740000       3.55604000      -4.78029000       0.22481000
H       -5.59517000       4.46994000      -3.61380000       0.21162000
H       -5.60932000       2.66386000      -3.62914000       0.24506000
H       -2.43881000       4.43308000      -4.08741000       0.23099000
H       -2.11860000       4.66964000      -2.36696000       0.22701000
H       -3.43700000       5.60038000      -3.16020000       0.20991000
H        1.04263000      -0.00629000       0.30293000       0.24685000
H       -3.31027000       2.66090000      -3.06198000       0.48522000
H       -1.37593000      -0.57724000      -3.39580000       0.23370000
H        1.01236000       0.89114000      -2.07001000       0.25871000
H        2.91885000      -0.47872000      -1.44597000       0.23024000
H        4.14716000      -2.64687000      -1.49135000       0.25511000
H        0.73885000      -4.54884000      -3.28479000       0.25908000
H       -0.48636000      -2.41471000      -3.24475000       0.23191000
H       -2.98562000      -3.41938000      -1.36017000       0.24501000
H       -3.86155000      -1.01748000      -4.81617000       0.25435000
C       -0.31668000       3.58985000       0.35017000      -0.22458000
H       -0.69805000       3.82092000      -0.64893000       0.18965000
H       -1.12125000       3.70142000       1.08442000       0.18417000
C       -0.37963000      -3.57919000       0.46407000      -0.22530000
H       -1.21997000      -3.64159000       1.16121000       0.19194000
H       -0.71354000      -3.87388000      -0.53459000       0.18353000
O        0.21707000       2.26528000       0.36803000      -0.55836000
O        0.16806000      -2.25485000       0.43863000      -0.55761000
H        0.51724000       4.24753000       0.60052000       0.19354000
H        0.43708000      -4.22500000       0.78846000       0.19671000
N        3.22116000      -4.98516000      -2.36877000       0.49957000
O        4.38568000      -4.98419000      -1.96646000      -0.39452000
O        2.61596000      -5.98230000      -2.75956000      -0.38461000
N       -1.88173000      -5.13165000      -5.49294000       0.50107000
O       -2.04211000      -5.03336000      -6.71052000      -0.39640000
O       -1.22651000      -6.02506000      -4.94581000      -0.40458000
H       -2.09275000      -5.22654000      -2.83928000       0.25226000
H       -2.98930000      -2.83839000      -6.28601000       0.25290000
