89
R5TS3minorsOMecNMe2.xyz  (col5 = NBO charge)
O       -0.55643000      -3.27023000       3.08980000      -0.55614000
N       -0.55950000      -2.02374000       2.85860000       0.42961000
C        0.57445000      -1.39947000       2.46324000      -0.16125000
C        0.53740000      -0.04703000       2.03223000      -0.11571000
C        1.77195000       0.76581000       2.04848000      -0.11137000
O       -1.85510000      -1.54083000      -0.00072000      -0.67385000
C       -0.66864000      -1.28077000      -0.16625000       0.82253000
C        0.01749000      -0.00203000      -0.00126000      -0.47702000
C       -0.70603000       1.24934000      -0.10188000       0.81658000
O       -1.91331000       1.44084000       0.07593000      -0.70532000
C        3.02738000       0.24874000       1.70375000      -0.16535000
C        1.69889000       2.11371000       2.44272000      -0.16670000
C        2.83666000       2.90308000       2.51668000      -0.25743000
C        4.08787000       2.36866000       2.17824000       0.33858000
C        4.17930000       1.03240000       1.76258000      -0.30040000
O       -1.64249000      -1.34033000       3.01311000      -0.60031000
N       -3.79749000      -2.66042000       2.13581000      -0.52380000
C       -3.24530000      -3.94313000       1.60218000      -0.38184000
C       -4.78807000      -2.02315000       1.18071000      -0.00700000
C       -5.15591000      -0.59057000       1.61344000      -0.05620000
C       -6.05783000       0.05116000       0.54022000      -0.39138000
C       -7.31792000      -0.78514000       0.28447000      -0.39440000
C       -6.95274000      -2.22635000      -0.09310000      -0.38538000
C       -6.05003000      -2.87004000       0.97305000      -0.41393000
N       -3.97032000       0.20363000       1.84530000      -0.67795000
C       -3.72576000       0.94608000       2.96500000       0.37338000
N       -2.74457000       1.86943000       2.76032000      -0.66510000
C       -1.85692000       2.41347000       3.72461000       0.10410000
S       -4.56700000       0.78305000       4.42480000      -0.34196000
C       -4.25827000      -2.83550000       3.54953000      -0.38634000
H       -5.70704000      -0.61823000       2.55776000       0.24470000
H       -5.48176000       0.16091000      -0.38987000       0.20440000
H       -6.31654000       1.06038000       0.87767000       0.22439000
H       -7.92385000      -0.32592000      -0.50555000       0.21350000
H       -7.93675000      -0.79390000       1.19297000       0.20151000
H       -6.42659000      -2.22993000      -1.05835000       0.19998000
H       -7.85557000      -2.83448000      -0.22295000       0.21309000
H       -6.60435000      -2.94474000       1.91774000       0.21041000
H       -5.78830000      -3.88874000       0.66755000       0.21752000
H       -4.22806000      -1.95978000       0.24215000       0.23723000
H       -2.44318000       1.97372000       1.79149000       0.42862000
H       -3.30239000       0.28333000       1.07599000       0.44639000
H       -3.39217000      -3.18380000       4.11357000       0.23429000
H       -5.06731000      -3.56743000       3.58567000       0.20478000
H       -4.57160000      -1.87003000       3.95147000       0.24251000
H       -2.36460000      -4.18220000       2.19901000       0.24873000
H       -2.95053000      -3.78038000       0.56681000       0.22458000
H       -3.99859000      -4.72889000       1.67807000       0.20537000
H        1.01905000       0.02091000      -0.41213000       0.25796000
H       -2.96245000      -2.01465000       2.24108000       0.50877000
H       -0.35180000       0.47760000       2.36008000       0.25832000
H        1.43529000      -2.04588000       2.38786000       0.22340000
H        0.74077000       2.54060000       2.71522000       0.22986000
H        2.77987000       3.93948000       2.83473000       0.22573000
H        5.13227000       0.59665000       1.48579000       0.22687000
H        3.11195000      -0.78152000       1.36830000       0.21990000
C       -1.50713000       3.76180000       3.64063000      -0.21207000
C       -0.49162000       4.29277000       4.43600000      -0.28057000
C        0.19683000       3.48622000       5.36729000       0.19486000
C       -0.19920000       2.13085000       5.46523000      -0.25744000
C       -1.19931000       1.60478000       4.65991000      -0.19445000
H       -2.02664000       4.40147000       2.93173000       0.22232000
H       -1.44998000       0.55087000       4.71185000       0.24746000
O        0.25490000      -2.23965000      -0.44101000      -0.55934000
O        0.14549000       2.28078000      -0.32470000      -0.54723000
C       -0.18414000      -3.60047000      -0.34962000      -0.23289000
H       -0.39221000      -3.85282000       0.69520000       0.19968000
H       -1.07364000      -3.76803000      -0.96427000       0.18427000
C       -0.41507000       3.59573000      -0.21947000      -0.22695000
H       -1.27080000       3.71331000      -0.88969000       0.19360000
H       -0.73315000       3.79450000       0.80967000       0.18542000
H        0.64673000      -4.20162000      -0.72255000       0.19367000
H        0.39013000       4.27701000      -0.49660000       0.19745000
O        5.14576000       3.22448000       2.28304000      -0.54869000
C        6.43810000       2.74048000       1.95126000      -0.22034000
H        6.49291000       2.41881000       0.90225000       0.17810000
H        7.12100000       3.57788000       2.10694000       0.19816000
H        6.73601000       1.90471000       2.59915000       0.17806000
H        0.30144000       1.46313000       6.15518000       0.22405000
H       -0.23770000       5.33835000       4.31367000       0.22180000
N        1.23259000       3.99381000       6.15521000      -0.51329000
C        1.74517000       5.31678000       5.84440000      -0.36346000
C        2.18652000       3.04575000       6.71704000      -0.36516000
H        0.95353000       6.06846000       5.93455000       0.20061000
H        2.52524000       5.57706000       6.56330000       0.20648000
H        2.17228000       5.38911000       4.82861000       0.17952000
H        1.70193000       2.38753000       7.44608000       0.19940000
H        2.66118000       2.41854000       5.94545000       0.19129000
H        2.96679000       3.59669000       7.24675000       0.20423000
