91
R5TS18majorcNMe2.xyz  (col5 = NBO charge)
O       -0.72015000       2.47292000      -2.67966000      -0.51038000
N       -1.25548000       1.43803000      -3.15274000       0.45306000
C       -0.73192000       0.19071000      -2.96994000      -0.15784000
C        0.44396000      -0.01228000      -2.25032000      -0.08128000
C        1.15581000      -1.29973000      -2.32802000      -0.09207000
O       -1.88137000       1.49267000       0.00466000      -0.71860000
C       -0.67313000       1.26482000       0.11909000       0.80832000
C        0.00803000       0.00067000      -0.00407000      -0.50175000
C       -0.69513000      -1.25200000       0.12491000       0.80589000
O       -1.89121000      -1.47103000      -0.08067000      -0.70827000
C       -3.31029000      -2.01912000      -4.53145000      -0.20128000
C       -3.39075000      -2.23218000      -3.15039000       0.11375000
C       -3.02517000      -3.48445000      -2.64620000      -0.20947000
C       -2.58538000      -4.50044000      -3.49071000      -0.27607000
C       -2.51728000      -4.30865000      -4.88822000       0.18411000
C       -2.88713000      -3.03584000      -5.38033000      -0.26422000
N       -3.66088000      -1.20012000      -2.22569000      -0.66362000
C       -4.51645000      -0.14961000      -2.31747000       0.37681000
S       -5.85829000      -0.08403000      -3.35544000      -0.36354000
N       -4.17567000       0.83929000      -1.44222000      -0.68948000
C       -4.99723000       1.95510000      -1.02699000      -0.04899000
C       -4.27754000       3.29451000      -1.31094000      -0.01651000
C       -5.09944000       4.49443000      -0.82727000      -0.41517000
C       -5.38283000       4.37286000       0.67887000      -0.38471000
C       -6.10529000       3.05742000       0.99408000      -0.39306000
C       -5.29974000       1.85731000       0.48331000      -0.39700000
N       -3.87688000       3.41521000      -2.77375000      -0.51131000
C       -5.00427000       3.42120000      -3.75720000      -0.38880000
C       -2.95250000       4.56161000      -3.02857000      -0.36333000
O       -2.33269000       1.52290000      -3.84740000      -0.55733000
C        0.53048000      -2.47917000      -2.77294000      -0.19270000
C        1.24105000      -3.67436000      -2.84027000      -0.21137000
C        2.58651000      -3.72006000      -2.46541000      -0.20358000
C        3.21667000      -2.55675000      -2.01521000      -0.21164000
C        2.50603000      -1.36134000      -1.94532000      -0.17129000
H       -5.93579000       1.90320000      -1.58623000       0.24208000
H       -4.34514000       1.78673000       1.02136000       0.21693000
H       -5.83733000       0.91899000       0.65626000       0.22387000
H       -6.27435000       2.96497000       2.07342000       0.21400000
H       -7.09662000       3.06514000       0.51830000       0.19924000
H       -4.43187000       4.40954000       1.22896000       0.20060000
H       -5.97563000       5.23366000       1.00973000       0.21232000
H       -6.05501000       4.53397000      -1.36652000       0.20933000
H       -4.57089000       5.43248000      -1.03224000       0.21678000
H       -3.31934000       3.25947000      -0.78170000       0.24388000
H       -3.03693000      -1.20510000      -1.41268000       0.44709000
H       -3.30722000       0.73357000      -0.90813000       0.45018000
H       -4.56460000       3.45180000      -4.75587000       0.22317000
H       -5.62733000       4.30298000      -3.59780000       0.20843000
H       -5.57550000       2.49565000      -3.65591000       0.24842000
H       -2.44726000       4.37103000      -3.97536000       0.23157000
H       -2.20127000       4.59513000      -2.24215000       0.22510000
H       -3.52060000       5.49230000      -3.07033000       0.20706000
H        1.04609000      -0.00744000       0.30293000       0.24470000
H       -3.30013000       2.55886000      -3.02954000       0.48858000
H       -1.32522000      -0.58892000      -3.41619000       0.23830000
H        1.04414000       0.86903000      -2.05116000       0.25315000
H        2.99632000      -0.45945000      -1.58652000       0.21895000
H        4.26160000      -2.58189000      -1.71817000       0.22018000
H        3.13942000      -4.65405000      -2.52174000       0.21866000
H        0.73341000      -4.57156000      -3.18485000       0.21877000
H       -0.51501000      -2.47987000      -3.05898000       0.23150000
H       -3.05806000      -3.64922000      -1.57332000       0.22831000
H       -3.55354000      -1.04171000      -4.93115000       0.24131000
C       -0.31504000       3.60163000       0.31839000      -0.04763000
C        0.84869000       4.55354000       0.52658000      -0.60231000
H       -0.79337000       3.75336000      -0.65439000       0.19212000
H       -1.07954000       3.71351000       1.09717000       0.18079000
H        0.49706000       5.59139000       0.50847000       0.20868000
H        1.59245000       4.42464000      -0.26611000       0.21010000
H        1.33497000       4.36892000       1.48996000       0.20897000
C       -0.39587000      -3.58657000       0.46220000      -0.04607000
C        0.73369000      -4.53109000       0.82774000      -0.60557000
H       -1.22339000      -3.63270000       1.17868000       0.18810000
H       -0.79983000      -3.80614000      -0.53155000       0.18748000
H        0.37021000      -5.56487000       0.84092000       0.20944000
H        1.13485000      -4.29111000       1.81789000       0.20823000
H        1.54298000      -4.45224000       0.09593000       0.21383000
O        0.21501000       2.26941000       0.35577000      -0.57381000
O        0.15627000      -2.25629000       0.45852000      -0.56946000
H       -2.83004000      -2.81952000      -6.44002000       0.22190000
H       -2.30161000      -5.44715000      -3.04718000       0.21971000
N       -2.10621000      -5.33185000      -5.74741000      -0.51244000
C       -1.74682000      -4.98437000      -7.11270000      -0.36418000
C       -1.45410000      -6.49434000      -5.17223000      -0.36227000
H       -0.92214000      -4.25394000      -7.16823000       0.18492000
H       -1.44314000      -5.88896000      -7.64431000       0.20474000
H       -2.60736000      -4.56590000      -7.64624000       0.20043000
H       -0.52857000      -6.24414000      -4.62349000       0.17815000
H       -2.12534000      -7.01605000      -4.48099000       0.19993000
H       -1.19962000      -7.19563000      -5.97003000       0.20645000
