93
R5TS18minorsNO2cNMe2.xyz  (col5 = NBO charge)
O        0.65203000      -3.45729000       2.99004000      -0.48426000
N        0.26788000      -2.27418000       2.82903000       0.45981000
C        1.16914000      -1.28875000       2.50256000      -0.13636000
C        0.71928000      -0.00495000       2.23207000      -0.09452000
C        1.62512000       1.14350000       2.11012000      -0.04531000
O       -1.85988000      -1.55247000      -0.05058000      -0.71403000
C       -0.65631000      -1.27919000      -0.09536000       0.79755000
C        0.00527000      -0.00122000      -0.02856000      -0.52120000
C       -0.71079000       1.24644000      -0.13009000       0.79441000
O       -1.90388000       1.45300000       0.11041000      -0.69855000
C        2.93831000       1.03569000       1.61581000      -0.17819000
C        1.14763000       2.40625000       2.50138000      -0.18069000
C        1.95066000       3.53398000       2.40689000      -0.18809000
C        3.24419000       3.39544000       1.90717000       0.05856000
C        3.75198000       2.15582000       1.51236000      -0.18038000
O       -0.96225000      -1.95580000       2.96167000      -0.53886000
N       -2.83241000      -3.89472000       2.97992000      -0.51442000
C       -2.05640000      -5.16459000       2.81644000      -0.37697000
C       -3.87938000      -3.69403000       1.88982000      -0.00393000
C       -4.60792000      -2.34043000       2.03734000      -0.05384000
C       -5.57198000      -2.15244000       0.84776000      -0.39425000
C       -6.57117000      -3.30937000       0.73123000      -0.39453000
C       -5.84038000      -4.65350000       0.62867000      -0.38514000
C       -4.87749000      -4.85522000       1.81117000      -0.41596000
N       -3.66055000      -1.25096000       2.10948000      -0.68470000
C       -3.66153000      -0.24732000       3.03450000       0.37451000
N       -2.90822000       0.80696000       2.63177000      -0.66385000
C       -2.43502000       1.90422000       3.39038000       0.10729000
S       -4.51650000      -0.31359000       4.50132000      -0.36197000
C       -3.32748000      -3.76779000       4.38739000      -0.39067000
H       -5.18950000      -2.32986000       2.96380000       0.24533000
H       -4.98003000      -2.06615000      -0.07409000       0.21018000
H       -6.08880000      -1.19722000       0.98706000       0.22654000
H       -7.22037000      -3.16217000      -0.13967000       0.21544000
H       -7.22470000      -3.31725000       1.61519000       0.20104000
H       -5.26837000      -4.68888000      -0.30932000       0.20098000
H       -6.55398000      -5.48481000       0.59586000       0.21405000
H       -5.45655000      -4.90677000       2.74272000       0.21105000
H       -4.35427000      -5.81107000       1.70000000       0.21801000
H       -3.28278000      -3.65132000       0.96998000       0.23137000
H       -2.64362000       0.84738000       1.63968000       0.44648000
H       -3.03697000      -1.15297000       1.30078000       0.44631000
H       -2.46951000      -3.91062000       5.04709000       0.22334000
H       -4.07734000      -4.53698000       4.58124000       0.21063000
H       -3.74107000      -2.76842000       4.54575000       0.24914000
H       -1.09740000      -5.02909000       3.31741000       0.24485000
H       -1.87840000      -5.34495000       1.75584000       0.21586000
H       -2.61698000      -5.99619000       3.24525000       0.21476000
H        1.03250000       0.00998000      -0.36639000       0.24479000
H       -2.12047000      -3.11609000       2.87622000       0.48960000
H       -0.29563000       0.22053000       2.53434000       0.26534000
H        2.18280000      -1.64304000       2.39533000       0.23314000
H        0.13893000       2.50350000       2.87982000       0.24622000
H        1.58464000       4.50879000       2.70325000       0.25171000
H        4.76074000       2.09190000       1.12373000       0.25304000
H        3.31519000       0.07330000       1.28343000       0.23006000
C       -2.44660000       3.17295000       2.80320000      -0.20389000
C       -1.84438000       4.26143000       3.42942000      -0.28185000
C       -1.22091000       4.12624000       4.69026000       0.18731000
C       -1.23377000       2.83879000       5.27766000      -0.26853000
C       -1.82288000       1.75305000       4.63948000      -0.19450000
H       -2.89633000       3.29508000       1.82332000       0.23366000
H       -1.79384000       0.77250000       5.10037000       0.23524000
O        0.28514000      -2.26631000      -0.18980000      -0.57601000
O        0.12608000       2.25976000      -0.47978000      -0.57235000
C       -0.19493000      -3.61617000      -0.16776000      -0.04383000
C        1.01779000      -4.52733000      -0.14803000      -0.60665000
H       -0.80236000      -3.75428000       0.73143000       0.17285000
H       -0.83806000      -3.78835000      -1.03899000       0.18672000
H        0.70076000      -5.57670000      -0.15477000       0.20803000
H        1.60099000      -4.34694000       0.75906000       0.22015000
H        1.64983000      -4.35183000      -1.02438000       0.20964000
C       -0.43538000       3.58802000      -0.46370000      -0.04779000
C        0.65743000       4.54287000      -0.90707000      -0.60270000
H       -1.30423000       3.61946000      -1.12959000       0.19061000
H       -0.78358000       3.81271000       0.55009000       0.18674000
H        0.26967000       5.56715000      -0.93658000       0.21287000
H        1.01972000       4.28002000      -1.90611000       0.21038000
H        1.50334000       4.51570000      -0.21397000       0.20684000
N        4.08733000       4.58963000       1.77395000       0.50181000
O        5.25833000       4.43277000       1.42625000      -0.39030000
O        3.57171000       5.68383000       2.01404000      -0.39473000
H       -0.76010000       2.66925000       6.23666000       0.22334000
H       -1.86169000       5.21761000       2.92098000       0.22270000
N       -0.61313000       5.20937000       5.32507000      -0.51203000
C        0.31397000       4.93978000       6.41346000      -0.36402000
C       -0.40326000       6.43063000       4.56555000      -0.36301000
H        1.14902000       4.28684000       6.10969000       0.18517000
H        0.72810000       5.88370000       6.77352000       0.20724000
H       -0.20008000       4.46534000       7.25688000       0.19985000
H        0.24168000       6.28730000       3.68118000       0.18030000
H       -1.35859000       6.84421000       4.22428000       0.20133000
H        0.06447000       7.17790000       5.20970000       0.20864000
