85
R5TS18majorsNO2cPh.xyz  (col5 = NBO charge)
O       -0.78780000       2.50724000      -2.69549000      -0.49574000
N       -1.32271000       1.47134000      -3.15988000       0.45864000
C       -0.78046000       0.22436000      -2.98597000      -0.15427000
C        0.40160000       0.03742000      -2.28125000      -0.09754000
C        1.11805000      -1.24686000      -2.34419000      -0.04462000
O       -1.88176000       1.49017000       0.00427000      -0.71781000
C       -0.67304000       1.26547000       0.11821000       0.80636000
C        0.00797000       0.00078000      -0.00154000      -0.49824000
C       -0.69408000      -1.25346000       0.12200000       0.80267000
O       -1.89191000      -1.46782000      -0.07900000      -0.70808000
C       -3.42376000      -2.02229000      -4.52206000      -0.23015000
C       -3.42898000      -2.23386000      -3.13595000       0.16215000
C       -3.03270000      -3.47782000      -2.62050000      -0.24103000
C       -2.63287000      -4.49884000      -3.48254000      -0.21303000
C       -2.63379000      -4.29371000      -4.86438000      -0.23344000
C       -3.03409000      -3.05530000      -5.37390000      -0.20236000
N       -3.68335000      -1.20441000      -2.20862000      -0.67115000
C       -4.54720000      -0.15252000      -2.27715000       0.37396000
S       -5.90875000      -0.08629000      -3.28347000      -0.34511000
N       -4.19318000       0.82743000      -1.39946000      -0.68643000
C       -5.01761000       1.93001000      -0.95043000      -0.04948000
C       -4.32328000       3.28194000      -1.23681000      -0.01595000
C       -5.14908000       4.46438000      -0.71855000      -0.41553000
C       -5.39116000       4.32169000       0.79303000      -0.38475000
C       -6.08740000       2.99297000       1.11128000      -0.39316000
C       -5.27953000       1.80982000       0.56580000      -0.39699000
N       -3.96261000       3.42503000      -2.70954000      -0.50828000
C       -5.11708000       3.43837000      -3.66207000      -0.38794000
C       -3.05216000       4.58163000      -2.97261000      -0.36351000
O       -2.40994000       1.54149000      -3.83192000      -0.54192000
C        0.48388000      -2.43797000      -2.74688000      -0.19219000
C        1.17800000      -3.63937000      -2.77533000      -0.17958000
C        2.52229000      -3.65126000      -2.40395000       0.05674000
C        3.18492000      -2.48902000      -2.00890000      -0.18030000
C        2.47502000      -1.29628000      -1.97786000      -0.17064000
H       -5.96933000       1.87257000      -1.48611000       0.24275000
H       -4.31067000       1.74581000       1.07844000       0.21739000
H       -5.80030000       0.86250000       0.74101000       0.22447000
H       -6.22613000       2.88534000       2.19336000       0.21521000
H       -7.09109000       2.99241000       0.66237000       0.19982000
H       -4.42693000       4.36582000       1.31885000       0.20083000
H       -5.98695000       5.17022000       1.14866000       0.21357000
H       -6.11889000       4.49586000      -1.23210000       0.21020000
H       -4.63935000       5.41207000      -0.92634000       0.21759000
H       -3.35114000       3.25471000      -0.73331000       0.24383000
H       -3.06739000      -1.22787000      -1.38999000       0.44907000
H       -3.31525000       0.72000000      -0.88111000       0.45122000
H       -4.70587000       3.48189000      -4.67226000       0.22395000
H       -5.73735000       4.31636000      -3.47491000       0.21042000
H       -5.68275000       2.51052000      -3.55484000       0.24753000
H       -2.58187000       4.41652000      -3.94197000       0.23143000
H       -2.27321000       4.60123000      -2.21314000       0.22572000
H       -3.62577000       5.50956000      -2.97286000       0.20896000
H        1.04914000      -0.00645000       0.29472000       0.24467000
H       -3.39021000       2.57787000      -2.98658000       0.48637000
H       -1.37317000      -0.55933000      -3.42653000       0.23886000
H        0.99313000       0.92302000      -2.07662000       0.25656000
H        2.97271000      -0.38570000      -1.65608000       0.23003000
H        4.22981000      -2.53748000      -1.72894000       0.25423000
H        0.68984000      -4.55853000      -3.07447000       0.25513000
H       -0.56391000      -2.44519000      -3.02148000       0.24010000
H       -3.03056000      -3.62278000      -1.54449000       0.23111000
H       -2.32573000      -5.08941000      -5.53665000       0.21889000
H       -3.70339000      -1.05088000      -4.91104000       0.24313000
C       -0.31762000       3.60365000       0.31873000      -0.04752000
C        0.84672000       4.55581000       0.52039000      -0.60257000
H       -0.80691000       3.75957000      -0.64798000       0.19161000
H       -1.07387000       3.70845000       1.10623000       0.18204000
H        0.49281000       5.59286000       0.51185000       0.20994000
H        1.58274000       4.43352000      -0.28050000       0.21018000
H        1.34279000       4.36666000       1.47773000       0.21008000
C       -0.40623000      -3.58781000       0.48428000      -0.04626000
C        0.71490000      -4.53835000       0.85832000      -0.60252000
H       -1.22491000      -3.60745000       1.21158000       0.19104000
H       -0.82639000      -3.82475000      -0.49864000       0.18534000
H        0.33516000      -5.56439000       0.91008000       0.21506000
H        1.13963000      -4.27391000       1.83191000       0.21076000
H        1.51313000      -4.50388000       0.11159000       0.20638000
O        0.21491000       2.27062000       0.34363000      -0.57259000
O        0.15772000      -2.26074000       0.44356000      -0.57055000
N        3.25560000      -4.92407000      -2.41353000       0.50118000
O        4.46286000      -4.89351000      -2.17132000      -0.39167000
O        2.61801000      -5.95001000      -2.65710000      -0.39276000
H       -3.02907000      -2.88300000      -6.44685000       0.21947000
H       -2.32812000      -5.45801000      -3.07161000       0.21897000
