97
R5TS18minorsNMe2.xyz  (col5 = NBO charge)
O        0.85278000      -3.29723000       3.00173000      -0.53084000
N        0.41220000      -2.14203000       2.75550000       0.43781000
C        1.23189000      -1.12041000       2.41486000      -0.13436000
C        0.68379000       0.14058000       2.10102000      -0.08316000
C        1.50139000       1.35312000       2.05363000      -0.15065000
O       -1.86205000      -1.54148000      -0.05799000      -0.70838000
C       -0.65626000      -1.28017000      -0.09651000       0.81416000
C        0.01324000       0.00187000      -0.00562000      -0.49984000
C       -0.71917000       1.23930000      -0.16403000       0.81299000
O       -1.90134000       1.44704000       0.12997000      -0.70569000
C        2.79693000       1.40159000       1.51313000      -0.15058000
C        0.95899000       2.55587000       2.53378000      -0.15829000
C        1.65809000       3.74997000       2.48102000      -0.28473000
C        2.95293000       3.80517000       1.91318000       0.21885000
C        3.50838000       2.58936000       1.43805000      -0.27444000
O       -0.85995000      -1.90294000       2.82355000      -0.59738000
N       -2.54363000      -3.89207000       3.14335000      -0.52080000
C       -1.72150000      -5.13961000       3.06407000      -0.37656000
C       -3.60573000      -3.80753000       2.05613000      -0.00755000
C       -4.43321000      -2.50640000       2.14370000      -0.05373000
C       -5.40223000      -2.43690000       0.94509000      -0.39441000
C       -6.32213000      -3.66134000       0.88326000      -0.39421000
C       -5.50292000      -4.95656000       0.84782000      -0.38532000
C       -4.52909000      -5.03318000       2.03570000      -0.41437000
N       -3.58021000      -1.33566000       2.17156000      -0.66908000
C       -3.70696000      -0.28861000       3.02460000       0.36775000
N       -3.00115000       0.80390000       2.59510000      -0.70339000
C       -2.69848000       1.98797000       3.28517000       0.31875000
S       -4.65780000      -0.31905000       4.42941000      -0.34238000
C       -3.02921000      -3.67844000       4.54025000      -0.38539000
H       -5.02072000      -2.50360000       3.06595000       0.24591000
H       -4.81275000      -2.35305000       0.02173000       0.21175000
H       -5.98270000      -1.51334000       1.04119000       0.22587000
H       -6.97546000      -3.59920000       0.00525000       0.21549000
H       -6.97763000      -3.66909000       1.76572000       0.20117000
H       -4.92903000      -5.00117000      -0.08867000       0.20064000
H       -6.15934000      -5.83433000       0.85874000       0.21420000
H       -5.10177000      -5.07764000       2.97186000       0.21037000
H       -3.94438000      -5.95643000       1.96932000       0.21883000
H       -3.02254000      -3.76884000       1.12828000       0.22947000
H       -2.68830000       0.81132000       1.61368000       0.45320000
H       -2.93574000      -1.24056000       1.37683000       0.45038000
H       -2.16119000      -3.73734000       5.19976000       0.22452000
H       -3.74879000      -4.45615000       4.80511000       0.20958000
H       -3.48325000      -2.69013000       4.63137000       0.24241000
H       -0.76569000      -4.92987000       3.54526000       0.24743000
H       -1.53615000      -5.38393000       2.01749000       0.21460000
H       -2.24559000      -5.96324000       3.55150000       0.21134000
H        1.02377000       0.01088000      -0.39294000       0.25111000
H       -1.84161000      -3.09132000       2.96742000       0.48979000
H       -0.33130000       0.28544000       2.45293000       0.25325000
H        2.27604000      -1.38414000       2.34247000       0.22835000
H       -0.03579000       2.55427000       2.96524000       0.21725000
H        1.17708000       4.64281000       2.85515000       0.22824000
H        4.49373000       2.57578000       0.98827000       0.22301000
H        3.24483000       0.49695000       1.10920000       0.21727000
C       -2.65237000       3.17808000       2.54242000      -0.22925000
C       -2.22886000       4.36088000       3.14431000      -0.15603000
C       -1.87612000       4.39331000       4.49343000      -0.17713000
C       -1.93809000       3.20926000       5.22775000      -0.14313000
C       -2.33398000       2.00948000       4.63784000      -0.21525000
H       -2.90899000       3.15794000       1.49136000       0.26202000
C       -2.07189000       5.60855000       2.32089000       1.07898000
H       -1.55229000       5.31591000       4.96039000       0.24986000
C       -1.59984000       3.23095000       6.69506000       1.07904000
H       -2.34242000       1.09476000       5.21410000       0.25933000
F       -0.76494000       5.80903000       1.97071000      -0.36917000
F       -2.45466000       6.71350000       2.99452000      -0.35329000
F       -2.76919000       5.56136000       1.16737000      -0.35213000
F       -2.69172000       3.47993000       7.45276000      -0.35555000
F       -0.69300000       4.19408000       6.98363000      -0.36048000
F       -1.08807000       2.05241000       7.11162000      -0.35558000
O        0.27928000      -2.26265000      -0.21377000      -0.57023000
O        0.08251000       2.23352000      -0.61052000      -0.56097000
C       -0.19010000      -3.61517000      -0.13982000      -0.04483000
C        1.03088000      -4.51448000      -0.10010000      -0.60831000
H       -0.78199000      -3.72048000       0.77319000       0.17638000
H       -0.84289000      -3.82257000      -0.99610000       0.18561000
H        0.72265000      -5.56615000      -0.06519000       0.20674000
H        1.61897000      -4.29321000       0.79465000       0.22568000
H        1.65217000      -4.36667000      -0.98927000       0.20860000
C       -0.45394000       3.57169000      -0.54107000      -0.04741000
C        0.62537000       4.51744000      -1.02934000      -0.60495000
H       -1.36558000       3.63158000      -1.14442000       0.19061000
H       -0.71551000       3.78763000       0.49588000       0.18562000
H        0.27329000       5.55103000      -0.93913000       0.21354000
H        0.88006000       4.32177000      -2.07608000       0.20761000
H        1.52767000       4.40150000      -0.42185000       0.21385000
N        3.63623000       5.00204000       1.81582000      -0.49379000
C        2.94713000       6.24294000       2.13677000      -0.36523000
H        3.61245000       7.08524000       1.94023000       0.20891000
H        2.03245000       6.37630000       1.54048000       0.19634000
H        2.66587000       6.27857000       3.19716000       0.19946000
C        4.90134000       5.05572000       1.10393000      -0.36368000
H        5.64283000       4.39129000       1.56503000       0.19937000
H        4.79978000       4.77085000       0.04507000       0.19103000
H        5.29665000       6.07197000       1.14819000       0.20938000
