83
R5TS3major.xyz  (col5 = NBO charge)
O       -0.97524000       2.28895000      -2.76629000      -0.51066000
N       -1.48010000       1.20253000      -3.15160000       0.45468000
C       -0.86280000      -0.00102000      -2.94431000      -0.15507000
C        0.36351000      -0.06829000      -2.28821000      -0.07368000
C        1.20201000      -1.27354000      -2.32291000      -0.09746000
O       -1.87954000       1.50615000       0.02727000      -0.72554000
C       -0.66853000       1.26870000       0.09151000       0.80614000
C       -0.00000000       0.00000000       0.00000000      -0.50900000
C       -0.69906000      -1.25055000       0.14607000       0.80583000
O       -1.88568000      -1.48917000      -0.10092000      -0.72042000
C       -4.05505000      -1.99618000      -4.25351000      -0.17385000
C       -3.77875000      -2.11804000      -2.88250000       0.18534000
C       -3.23639000      -3.31483000      -2.39651000      -0.19520000
C       -2.98549000      -4.37434000      -3.26867000      -0.14817000
C       -3.27809000      -4.27247000      -4.62583000      -0.18132000
C       -3.81476000      -3.07352000      -5.10156000      -0.14141000
N       -3.90617000      -1.06113000      -1.97591000      -0.66828000
C       -4.75358000       0.01303000      -2.00444000       0.37394000
S       -6.22642000       0.05179000      -2.84164000      -0.33362000
C       -2.35419000      -5.61502000      -2.70684000       1.08091000
C       -4.17120000      -2.95559000      -6.55997000       1.07948000
N       -4.28305000       1.02160000      -1.23162000      -0.67491000
C       -4.96530000       2.24979000      -0.88193000      -0.04953000
C       -4.16846000       3.47188000      -1.39924000      -0.01498000
C       -4.82517000       4.79271000      -0.98215000      -0.41596000
C       -4.95691000       4.86573000       0.54781000      -0.38493000
C       -5.75540000       3.67245000       1.08520000      -0.39315000
C       -5.11358000       2.35028000       0.65078000      -0.39765000
N       -3.92397000       3.39438000      -2.90236000      -0.51446000
C       -5.15100000       3.37642000      -3.75888000      -0.38823000
C       -2.97147000       4.44240000      -3.38401000      -0.36344000
O       -2.60303000       1.19754000      -3.76994000      -0.54436000
C        0.68712000      -2.55379000      -2.59563000      -0.18882000
C        1.53010000      -3.66141000      -2.63280000      -0.20753000
C        2.89842000      -3.51411000      -2.39243000      -0.19412000
C        3.42108000      -2.25001000      -2.10914000      -0.20965000
C        2.57903000      -1.14251000      -2.07199000      -0.17261000
H       -5.95875000       2.22281000      -1.33788000       0.24350000
H       -4.11779000       2.24778000       1.10076000       0.21982000
H       -5.70878000       1.49389000       0.98480000       0.22470000
H       -5.81819000       3.71698000       2.17868000       0.21564000
H       -6.78644000       3.72517000       0.70686000       0.19989000
H       -3.95352000       4.86765000       0.99684000       0.20046000
H       -5.43240000       5.81288000       0.82750000       0.21399000
H       -5.82512000       4.86910000      -1.42903000       0.21043000
H       -4.24055000       5.64540000      -1.34478000       0.21854000
H       -3.16286000       3.39997000      -0.97157000       0.24298000
H       -3.19085000      -1.06386000      -1.23833000       0.45498000
H       -3.36375000       0.90999000      -0.78817000       0.45237000
H       -4.82543000       3.26303000      -4.79468000       0.22444000
H       -5.69435000       4.31552000      -3.64205000       0.21089000
H       -5.76933000       2.51809000      -3.49020000       0.24530000
H       -2.58880000       4.11963000      -4.35257000       0.22978000
H       -2.13644000       4.51150000      -2.69067000       0.22879000
H       -3.49122000       5.39715000      -3.47578000       0.20862000
H        1.04579000      -0.00525000       0.27806000       0.24798000
H       -3.42749000       2.47646000      -3.10174000       0.48801000
H       -1.41991000      -0.84468000      -3.31731000       0.23341000
H        0.87998000       0.87536000      -2.15084000       0.25497000
H        2.98473000      -0.15917000      -1.84624000       0.21980000
H        4.48353000      -2.12786000      -1.91713000       0.22121000
H        3.55285000      -4.38103000      -2.42191000       0.21982000
H        1.11222000      -4.64004000      -2.84166000       0.22640000
H       -0.37624000      -2.69535000      -2.76101000       0.22087000
H       -2.99715000      -3.39786000      -1.34194000       0.25486000
H       -3.08283000      -5.09713000      -5.29953000       0.25197000
H       -4.42840000      -1.06132000      -4.64603000       0.26388000
F       -1.06455000      -5.37650000      -2.31709000      -0.37241000
F       -2.99759000      -6.05532000      -1.60455000      -0.35349000
F       -2.31127000      -6.62822000      -3.59300000      -0.35256000
F       -3.35584000      -3.70865000      -7.33560000      -0.36121000
F       -4.08750000      -1.68133000      -7.00029000      -0.35667000
F       -5.43493000      -3.37542000      -6.79754000      -0.35632000
C       -0.29960000       3.60022000       0.17570000      -0.22379000
H       -0.72287000       3.78248000      -0.81703000       0.18737000
H       -1.07381000       3.75289000       0.93509000       0.18337000
C       -0.40874000      -3.55555000       0.62111000      -0.22651000
H       -1.29631000      -3.56914000       1.26006000       0.18994000
H       -0.67008000      -3.92872000      -0.37183000       0.18677000
O        0.23538000       2.27911000       0.23990000      -0.56298000
O        0.14554000      -2.23562000       0.54382000      -0.55429000
H        0.54311000       4.26986000       0.35692000       0.19178000
H        0.38024000      -4.17486000       1.05007000       0.19440000
