81
R5TS3majorsOMecPh.xyz  (col5 = NBO charge)
O       -0.70929000       2.41464000      -2.65800000      -0.52902000
N       -1.22352000       1.37194000      -3.14612000       0.44493000
C       -0.70389000       0.13435000      -2.94061000      -0.15851000
C        0.46602000      -0.05812000      -2.19118000      -0.08372000
C        1.17886000      -1.34264000      -2.25654000      -0.12668000
O       -1.88002000       1.49511000       0.00923000      -0.71276000
C       -0.67309000       1.26651000       0.11918000       0.81287000
C        0.00906000       0.00010000      -0.01526000      -0.49376000
C       -0.70037000      -1.24913000       0.14174000       0.80967000
O       -1.88838000      -1.47746000      -0.09096000      -0.70312000
C       -3.41903000      -2.05353000      -4.52775000      -0.22733000
C       -3.42128000      -2.22754000      -3.13651000       0.16362000
C       -3.03561000      -3.46121000      -2.58938000      -0.24004000
C       -2.65610000      -4.51076000      -3.42560000      -0.21258000
C       -2.66539000      -4.34491000      -4.81243000      -0.23454000
C       -3.04996000      -3.11482000      -5.35309000      -0.20311000
N       -3.66692000      -1.17260000      -2.23635000      -0.66936000
C       -4.51008000      -0.10721000      -2.34250000       0.37755000
S       -5.86695000      -0.04832000      -3.35872000      -0.35183000
N       -4.14902000       0.88950000      -1.48980000      -0.68252000
C       -4.93618000       2.04523000      -1.11585000      -0.04935000
C       -4.17550000       3.35195000      -1.44491000      -0.01578000
C       -4.95800000       4.59090000      -0.99341000      -0.41516000
C       -5.24564000       4.52354000       0.51504000      -0.38493000
C       -6.01247000       3.24352000       0.86752000      -0.39304000
C       -5.24456000       2.00375000       0.39597000      -0.39731000
N       -3.78000000       3.41939000      -2.91241000      -0.51422000
C       -4.91128000       3.41580000      -3.89019000      -0.38873000
C       -2.83761000       4.54110000      -3.20634000      -0.36374000
O       -2.28145000       1.45409000      -3.87803000      -0.57079000
C        0.55405000      -2.53565000      -2.67468000      -0.17576000
C        1.24621000      -3.73457000      -2.69921000      -0.25148000
C        2.59120000      -3.78554000      -2.29975000       0.34499000
C        3.23223000      -2.61133000      -1.88186000      -0.30154000
C        2.52171000      -1.41292000      -1.86240000      -0.14525000
H       -5.87512000       2.00251000      -1.67484000       0.24280000
H       -4.29432000       1.91971000       0.93917000       0.21772000
H       -5.81227000       1.08862000       0.59519000       0.22376000
H       -6.18688000       3.18881000       1.94857000       0.21415000
H       -7.00192000       3.26960000       0.38851000       0.19937000
H       -4.29425000       4.54379000       1.06537000       0.20019000
H       -5.80860000       5.41359000       0.81958000       0.21257000
H       -5.91179000       4.64679000      -1.53440000       0.20922000
H       -4.39918000       5.50478000      -1.22468000       0.21732000
H       -3.21589000       3.30328000      -0.91941000       0.24287000
H       -3.04964000      -1.18024000      -1.41834000       0.44850000
H       -3.28106000       0.78156000      -0.95528000       0.44959000
H       -4.47646000       3.40815000      -4.89150000       0.22309000
H       -5.51897000       4.31266000      -3.75663000       0.20821000
H       -5.49964000       2.50522000      -3.75886000       0.24694000
H       -2.34632000       4.31588000      -4.15313000       0.23059000
H       -2.07693000       4.57897000      -2.42954000       0.22665000
H       -3.38747000       5.48158000      -3.26914000       0.20628000
H        1.03898000      -0.00734000       0.31908000       0.24715000
H       -3.21257000       2.54349000      -3.14668000       0.48850000
H       -1.27862000      -0.65293000      -3.39797000       0.23541000
H        1.07172000       0.82735000      -2.02704000       0.25260000
H        3.02278000      -0.50897000      -1.52404000       0.21929000
H        4.27008000      -2.61960000      -1.57021000       0.22847000
H        0.76171000      -4.65003000      -3.02365000       0.23230000
H       -0.48854000      -2.54105000      -2.97145000       0.23089000
H       -3.02269000      -3.57437000      -1.50967000       0.23067000
H       -2.37345000      -5.16322000      -5.46473000       0.21691000
H       -3.68304000      -1.08818000      -4.94112000       0.24322000
C       -0.32162000       3.58830000       0.34186000      -0.22456000
H       -0.69562000       3.81165000      -0.66153000       0.19115000
H       -1.13272000       3.70222000       1.06873000       0.18316000
C       -0.42341000      -3.55703000       0.56983000      -0.22454000
H       -1.26359000      -3.60099000       1.26921000       0.18901000
H       -0.76530000      -3.85688000      -0.42439000       0.18868000
O        0.21579000       2.26598000       0.37102000      -0.55992000
O        0.14197000      -2.24128000       0.53170000      -0.55512000
H        0.50823000       4.25058000       0.59502000       0.19105000
H        0.38549000      -4.21073000       0.89912000       0.19276000
O        3.17720000      -5.01408000      -2.35460000      -0.54577000
C        4.53703000      -5.13103000      -1.96193000      -0.22090000
H        4.68051000      -4.84035000      -0.91241000       0.17867000
H        4.79370000      -6.18503000      -2.08284000       0.19935000
H        5.19439000      -4.52235000      -2.59741000       0.17918000
H       -3.04740000      -2.97110000      -6.43035000       0.21822000
H       -2.35890000      -5.46141000      -2.98979000       0.21672000
