87
R5TS3minorsNO2cNMe2.xyz  (col5 = NBO charge)
O       -0.59610000      -3.34390000       3.05947000      -0.53057000
N       -0.61325000      -2.09535000       2.87057000       0.44138000
C        0.52756000      -1.45136000       2.49335000      -0.16957000
C        0.47459000      -0.10392000       2.08282000      -0.13046000
C        1.69311000       0.73423000       2.11619000      -0.02896000
O       -1.85443000      -1.54087000       0.00138000      -0.67912000
C       -0.66766000      -1.28123000      -0.16709000       0.81847000
C        0.01464000      -0.00277000      -0.00500000      -0.47761000
C       -0.70464000       1.25030000      -0.09537000       0.81007000
O       -1.91350000       1.44113000       0.07190000      -0.70388000
C        2.97042000       0.23390000       1.80578000      -0.18843000
C        1.56788000       2.07859000       2.50197000      -0.18640000
C        2.68280000       2.89922000       2.61140000      -0.18162000
C        3.93641000       2.36909000       2.31463000       0.06215000
C        4.09476000       1.04435000       1.90171000      -0.18194000
O       -1.69243000      -1.42490000       3.04598000      -0.57858000
N       -3.86713000      -2.67474000       2.05378000      -0.51984000
C       -3.30417000      -3.95103000       1.51441000      -0.38062000
C       -4.82948000      -2.01541000       1.08337000      -0.00630000
C       -5.18491000      -0.58299000       1.52722000      -0.05598000
C       -6.05251000       0.08549000       0.44237000      -0.39159000
C       -7.31801000      -0.73000000       0.14765000      -0.39441000
C       -6.96564000      -2.17206000      -0.23957000      -0.38525000
C       -6.09711000      -2.84249000       0.83873000      -0.41427000
N       -3.99069000       0.18751000       1.79637000      -0.68019000
C       -3.76115000       0.91440000       2.93109000       0.37035000
N       -2.77583000       1.83915000       2.75221000      -0.66476000
C       -1.90611000       2.38234000       3.73306000       0.10090000
S       -4.61856000       0.72719000       4.37689000      -0.33511000
C       -4.36868000      -2.87107000       3.45155000      -0.38607000
H       -5.75705000      -0.61456000       2.45879000       0.24492000
H       -5.45397000       0.19866000      -0.47302000       0.20475000
H       -6.30520000       1.09396000       0.78649000       0.22481000
H       -7.89865000      -0.25249000      -0.65026000       0.21440000
H       -7.95780000      -0.74039000       1.04143000       0.20191000
H       -6.41821000      -2.17236000      -1.19285000       0.20034000
H       -7.87423000      -2.76467000      -0.39672000       0.21405000
H       -6.67391000      -2.91975000       1.76953000       0.21111000
H       -5.84287000      -3.86128000       0.52700000       0.21804000
H       -4.24783000      -1.94855000       0.15827000       0.23724000
H       -2.47109000       1.96745000       1.78756000       0.42863000
H       -3.31972000       0.28893000       1.03227000       0.44592000
H       -3.52224000      -3.23400000       4.03553000       0.23377000
H       -5.18151000      -3.59926000       3.45012000       0.20664000
H       -4.68870000      -1.91070000       3.86026000       0.24319000
H       -2.44658000      -4.21034000       2.13585000       0.24628000
H       -2.97291000      -3.77039000       0.49329000       0.22622000
H       -4.06513000      -4.73191000       1.54977000       0.20753000
H        1.02515000       0.02142000      -0.39352000       0.25645000
H       -3.04003000      -2.03457000       2.18294000       0.50806000
H       -0.43430000       0.40460000       2.37941000       0.26256000
H        1.39089000      -2.09357000       2.41171000       0.22733000
H        0.59133000       2.47941000       2.74036000       0.23987000
H        2.59067000       3.93150000       2.92401000       0.25061000
H        5.08495000       0.67233000       1.66959000       0.25264000
H        3.08336000      -0.79507000       1.47829000       0.23065000
C       -1.54525000       3.72873000       3.64859000      -0.21358000
C       -0.53899000       4.25725000       4.45695000      -0.28146000
C        0.12808000       3.45199000       5.40657000       0.19529000
C       -0.28095000       2.09949000       5.50555000      -0.26080000
C       -1.27053000       1.57560000       4.68531000      -0.19569000
H       -2.04799000       4.36866000       2.92787000       0.22355000
H       -1.52996000       0.52402000       4.74198000       0.24639000
O        0.25628000      -2.23998000      -0.43569000      -0.55789000
O        0.15051000       2.28284000      -0.30029000      -0.54942000
C       -0.18980000      -3.60084000      -0.37486000      -0.23229000
H       -0.42045000      -3.87081000       0.66062000       0.19836000
H       -1.06725000      -3.75354000      -1.01015000       0.18534000
C       -0.41510000       3.59801000      -0.21459000      -0.22710000
H       -1.25739000       3.70829000      -0.90252000       0.19563000
H       -0.75476000       3.80265000       0.80645000       0.18464000
H        0.64612000      -4.19873000      -0.74105000       0.19540000
H        0.39357000       4.27929000      -0.48100000       0.19842000
N        5.12120000       3.22699000       2.44384000       0.50120000
O        6.21507000       2.74774000       2.14197000      -0.39428000
O        4.95401000       4.37854000       2.85121000      -0.39749000
H        0.20049000       1.43273000       6.20988000       0.22490000
H       -0.27631000       5.30065000       4.33430000       0.22340000
N        1.15070000       3.95708000       6.20685000      -0.51027000
C        2.04682000       3.01095000       6.85707000      -0.36473000
H        2.53886000       2.33418000       6.13992000       0.18771000
H        2.81898000       3.56295000       7.39651000       0.20740000
H        1.50827000       2.40064000       7.59048000       0.20013000
C        1.69506000       5.26877000       5.89679000      -0.36339000
H        2.16223000       5.31936000       4.89843000       0.18121000
H        0.91360000       6.03449000       5.94866000       0.20070000
H        2.45317000       5.52640000       6.63914000       0.20900000
