87
R5TS3minorsNMe2cNO2.xyz  (col5 = NBO charge)
O        0.67789000      -3.34288000       2.94628000      -0.54506000
N        0.28718000      -2.15850000       2.74450000       0.43142000
C        1.14484000      -1.17828000       2.39168000      -0.13432000
C        0.64385000       0.10605000       2.06468000      -0.09686000
C        1.49657000       1.29783000       2.07950000      -0.18457000
O       -1.85863000      -1.54859000      -0.04250000      -0.70207000
C       -0.65725000      -1.28317000      -0.12181000       0.81867000
C        0.01369000      -0.00012000       0.00733000      -0.49134000
C       -0.72105000       1.23921000      -0.15865000       0.81440000
O       -1.90234000       1.45923000       0.12145000      -0.69908000
C        2.84610000       1.32533000       1.69182000      -0.15446000
C        0.92950000       2.50808000       2.50632000      -0.05775000
C        1.65045000       3.68736000       2.57139000      -0.32840000
C        3.01678000       3.71260000       2.20224000       0.22565000
C        3.58933000       2.49618000       1.74482000      -0.27540000
O       -0.97124000      -1.85983000       2.87388000      -0.60645000
N       -2.70191000      -3.82000000       2.96752000      -0.51948000
C       -1.91129000      -5.08251000       2.84424000      -0.37617000
C       -3.72977000      -3.65776000       1.85860000      -0.00927000
C       -4.53731000      -2.34902000       1.99519000      -0.05261000
C       -5.47833000      -2.19732000       0.78169000      -0.39407000
C       -6.41823000      -3.39860000       0.63302000      -0.39425000
C       -5.61923000      -4.70351000       0.54390000      -0.38552000
C       -4.67487000      -4.86254000       1.74698000      -0.41398000
N       -3.66506000      -1.19597000       2.09689000      -0.66631000
C       -3.80020000      -0.17850000       2.98237000       0.36710000
N       -3.10910000       0.93562000       2.57560000      -0.66791000
C       -2.68832000       2.04988000       3.30681000       0.21331000
S       -4.75148000      -0.24666000       4.38142000      -0.33118000
C       -3.21876000      -3.66516000       4.36030000      -0.38527000
H       -5.14405000      -2.38124000       2.90432000       0.24491000
H       -4.86595000      -2.07686000      -0.12250000       0.21101000
H       -6.04389000      -1.26886000       0.91389000       0.22522000
H       -7.05045000      -3.27623000      -0.25409000       0.21531000
H       -7.09346000      -3.44289000       1.49941000       0.20118000
H       -5.02433000      -4.70570000      -0.38048000       0.20039000
H       -6.28946000      -5.56923000       0.49086000       0.21408000
H       -5.26980000      -4.94920000       2.66621000       0.20996000
H       -4.10525000      -5.79131000       1.64150000       0.21889000
H       -3.11743000      -3.57842000       0.95232000       0.23376000
H       -2.79876000       0.95660000       1.59490000       0.45202000
H       -2.98511000      -1.09364000       1.33426000       0.45073000
H       -2.36905000      -3.77667000       5.03652000       0.22468000
H       -3.96275000      -4.43725000       4.56886000       0.20865000
H       -3.65114000      -2.67162000       4.49022000       0.24150000
H       -0.97172000      -4.93086000       3.37576000       0.24790000
H       -1.69049000      -5.26317000       1.79152000       0.21402000
H       -2.47677000      -5.91996000       3.25636000       0.20978000
H        1.01683000       0.01428000      -0.39994000       0.25473000
H       -1.97328000      -3.02475000       2.85680000       0.48843000
H       -0.36651000       0.27770000       2.41889000       0.25289000
H        2.17273000      -1.49223000       2.29256000       0.22706000
H       -0.10980000       2.51754000       2.80388000       0.20716000
H        1.14769000       4.58291000       2.91609000       0.22586000
H        4.62429000       2.46553000       1.42619000       0.22245000
H        3.32340000       0.41948000       1.32578000       0.21671000
C       -2.56518000       3.26472000       2.60180000      -0.23299000
C       -1.94852000       4.36019000       3.18639000      -0.18332000
C       -1.48054000       4.25226000       4.49735000       0.02889000
C       -1.66385000       3.08292000       5.24003000      -0.16906000
C       -2.26255000       1.98047000       4.64581000      -0.21970000
H       -2.90196000       3.31018000       1.57286000       0.24555000
H       -2.36145000       1.05103000       5.19050000       0.25028000
O        0.28006000      -2.24686000      -0.32953000      -0.55695000
O        0.09243000       2.22437000      -0.60854000      -0.54802000
C       -0.13807000      -3.61291000      -0.28691000      -0.23349000
H       -0.11025000      -3.95960000       0.75170000       0.19280000
H       -1.13790000      -3.73369000      -0.71212000       0.19014000
C       -0.45913000       3.54702000      -0.61488000      -0.22521000
H       -1.37646000       3.58636000      -1.20900000       0.19053000
H       -0.67067000       3.87384000       0.40702000       0.18613000
H        0.59351000      -4.17102000      -0.87447000       0.19482000
H        0.31202000       4.18035000      -1.05507000       0.19532000
N        3.75615000       4.87519000       2.29175000      -0.49135000
C        3.08312000       6.12971000       2.60081000      -0.36553000
C        5.10156000       4.91737000       1.74542000      -0.36469000
H        3.82736000       6.92389000       2.68285000       0.20794000
H        2.35374000       6.41520000       1.82713000       0.18964000
H        2.54926000       6.07128000       3.55567000       0.20848000
H        5.74995000       4.18138000       2.23683000       0.19956000
H        5.12337000       4.72124000       0.66181000       0.18953000
H        5.53056000       5.90519000       1.92249000       0.20935000
N       -0.71690000       5.35183000       5.07388000       0.50082000
O       -0.50814000       5.34524000       6.28732000      -0.39150000
O       -0.29607000       6.22671000       4.30311000      -0.41595000
H       -1.28696000       3.03374000       6.25430000       0.25220000
H       -1.80479000       5.28413000       2.63988000       0.25017000
